CHARGE: 1
PRECURSORMZ: 433.1493083479999
COMPOUNDNAME: challenge166
FORMULA: C22H24O9
SMILES: O=C1C(OC)=C(C2=CC=C(OC)C(OC)=C2)OC3=C(OC)C(OC)=C(OC)C(OC)=C13
INCHIKEY: SSXJHQZOHUYEGD-UHFFFAOYSA-N
PRECURSORTYPE: [M+H]+
IONMODE: positive
PARENTMASS: 432.14203234799993
NUM PEAKS: 26
88.29790496826172       0.012127802477245752
112.9268569946289       0.012218475742639035
165.0595245361328       0.04405920322435161
183.03460693359375      0.01705548160198679
211.02816772460938      0.015873149670916076
311.06298828125         0.0175124793014879
314.08746337890625      0.017387088495645756
339.05682373046875      0.016978373832564064
342.0824279785156       0.020166156413333927
345.06011962890625      0.06422897336708416
357.0994567871094       0.02013527677389487
360.09075927734375      0.031213217174800054
373.0662536621094       0.046689412889568745
385.0926208496094       0.0698839803977701
387.08843994140625      0.038378794229058884
388.0899963378906       0.03784441892393641
403.1017150878906       0.7126107988944852
404.1041564941406       0.15049365909841167
405.11859130859375      0.014178275296686976
417.1305236816406       0.05850309904798468
418.1246032714844       0.08870182552075896
419.1406555175781       0.01658172292322438
433.01617431640625      0.02445547885380889
433.1482238769531       1.0
434.15191650390625      0.20006283447234652
435.1614074707031       0.02156453477250401


