CHARGE: 1
PRECURSORMZ: 433.2220793639999
COMPOUNDNAME: challenge229
FORMULA: C24H32O7
SMILES: O[C@]1(C)[C@@H](C)CC2=CC(OC)=C(OC)C(OC)=C2C3=C(OC)C(OC)=C(OC)C=C3C1
INCHIKEY: YEFOAORQXAOVJQ-RZFZLAGVSA-N
PRECURSORTYPE: [M+H]+
IONMODE: positive
PARENTMASS: 432.2148033639999
NUM PEAKS: 47
56.80592346191406       0.03100072807000874
98.39962768554688       0.029993105191223234
116.45272064208984      0.032841402839973735
175.12908935546875      0.03367007939440076
256.11602783203125      0.04817354347339255
272.1098327636719       0.05683230579583131
284.1092529296875       0.0340939281341361
285.1177978515625       0.03875136203097787
299.133056640625        0.07366555081897454
300.10357666015625      0.04947105060621033
302.12225341796875      0.04535734618283861
307.14801025390625      0.03136912967792491
315.12579345703125      0.21584538189872127
316.13397216796875      0.05584247245988966
322.1637268066406       0.05853728981615831
324.1450500488281       0.03617749085970902
326.1527404785156       0.060357377505941376
328.1383972167969       0.08046150551361132
329.1473693847656       0.11466695088015823
330.1458435058594       0.3298785231853374
331.13238525390625      0.11345663317586546
332.1336975097656       0.041766845285204655
338.16339111328125      0.10526625894932486
339.1591491699219       0.0371941671631786
342.1573791503906       0.10932901675359817
343.158203125           0.06749074256759828
344.1407165527344       0.04492378902788739
345.1338806152344       0.05327173650996638
346.137939453125        0.19961239930961552
347.1541748046875       0.053967679960890136
348.16778564453125      0.08994749176703101
353.1825256347656       0.11958251217898128
354.17303466796875      0.03944685135513291
357.17047119140625      0.15404939483299687
358.1871337890625       0.10784109950658079
359.1622314453125       0.08740769465876123
361.1733703613281       0.11347762780571162
369.17071533203125      0.19471546885258606
373.1783447265625       0.05380175484830396
384.1952209472656       0.32892767488584884
385.20550537109375      0.12299402890835937
400.20074462890625      0.1220247011426668
415.2098693847656       1.0
416.21295166015625      0.2656163948799466
417.2232360839844       0.05176153794059146
432.21392822265625      0.4811642655237763
433.2135009765625       0.15482155007113255


