CHARGE: 1
PRECURSORMZ: 245.080834864
COMPOUNDNAME: challenge35
FORMULA: C14H12O4
SMILES: OC1=CC=CC(O)=C1/C=C/C2=CC(O)=CC(O)=C2
INCHIKEY: DQULNTWGBBNZSC-SNAWJCMRSA-N
PRECURSORTYPE: [M+H]+
IONMODE: positive
PARENTMASS: 244.073558864
NUM PEAKS: 48
55.01948547363281       0.016058091210367234
61.2182731628418        0.015259187187889548
62.36351013183594       0.017415855315878227
68.99882507324219       0.023968500572172383
79.05646514892578       0.06782582281894892
82.91002655029297       0.01696166492837424
95.01448059082031       0.0400121472975288
99.3460922241211        0.017611829951916257
99.45233154296875       0.015653837970629386
107.03456115722656      0.044961798599238455
107.05207824707031      0.7820908226086566
108.05583953857422      0.05862611530716625
111.04405212402344      0.08244242349298486
123.04766082763672      0.080669783702893
128.06666564941406      0.024582977678143034
133.03085327148438      0.03422118962149895
135.02279663085938      0.053375905644293335
135.0438232421875       1.0
136.05303955078125      0.1292268063157088
137.02589416503906      0.020999267870210357
147.04798889160156      0.059658156494252115
152.0659637451172       0.029279258170650517
153.07394409179688      0.05064809677961744
156.98216247558594      0.020328551548716906
157.06471252441406      0.12386530723619245
160.05523681640625      0.02745505945211895
161.0592803955078       0.2598280666523239
162.06646728515625      0.022827542168745482
169.06854248046875      0.017425470887005676
171.08438110351562      0.05821589950991158
181.06422424316406      0.24747630527436532
182.07174682617188      0.03273519847261541
185.06361389160156      0.025989590458676992
197.06214904785156      0.0402869495084801
198.06707763671875      0.10064918321238492
199.0743865966797       0.23930066555897153
200.08383178710938      0.022538107503594786
209.0596160888672       0.1493775229836484
210.07069396972656      0.03171449663611506
226.0615997314453       0.37264086719902806
226.99534606933594      0.029685612585349085
227.06932067871094      0.8347124501558169
228.07273864746094      0.11237003256593878
243.07000732421875      0.018631619627858077
244.07473754882812      0.08420615733206431
245.02760314941406      0.028336553347532496
245.0800018310547       0.6747860496810317
246.08447265625         0.10372116511847666


