CHARGE: 1
PRECURSORMZ: 198.002775892
COMPOUNDNAME: challenge210
FORMULA: C5H11NO2Se
SMILES: O=C(O)[C@@H](N)CC[Se]C
INCHIKEY: RJFAYQIBOAGBLC-BYPYZUCNSA-N
PRECURSORTYPE: [M+H]+
IONMODE: positive
PARENTMASS: 196.995499892
NUM PEAKS: 61
56.0411262512207        0.01888381325647006
56.04439926147461       0.057724078926805
56.05131530761719       0.6614588656066115
57.054561614990234      0.023926596088736724
61.012516021728516      0.02802670861491081
71.1750259399414        0.00915445142075104
71.93095397949219       0.010698964350805576
72.45044708251953       0.008100566912312914
72.93894958496094       0.017677466232714253
74.02562713623047       0.033886988274763226
74.062255859375         0.051608642197268115
74.09844970703125       0.02473123606000851
77.2256088256836        0.010769369365633497
79.02244567871094       0.019168155279438166
84.04650115966797       0.029442586652386412
85.02991485595703       0.017205413124903896
88.04097747802734       0.012325677880973501
90.94952392578125       0.013901325112832763
99.49272155761719       0.009803593076535094
102.05778503417969      0.2563180215769764
103.06088256835938      0.016570287862298277
106.94198608398438      0.02039121363692393
106.95899200439453      0.06249914017393525
107.00225067138672      0.01747175776001376
108.93975830078125      0.017590273728133494
108.95514678955078      0.3802287644383958
109.95974731445312      0.010855345830494106
110.95829010009766      0.03237816303968776
112.03932189941406      0.05629055725848066
116.00694274902344      0.015771344852866957
118.9278793334961       0.023960984218035067
119.9275894165039       0.011387182644586779
120.92337036132812      0.011327870614317129
132.9754638671875       0.02502790798874518
134.9578857421875       0.05456378576915736
134.97579956054688      0.10811109007785484
149.9977569580078       0.06111458437167567
150.9510498046875       0.050449036546715266
151.00439453125         0.013094708769934994
151.97149658203125      0.021239718249050594
151.99710083007812      0.5184896603901263
153.0057830810547       0.020223204852194032
153.99729919433594      0.04228990135367871
161.5989532470703       0.009239248695579986
162.9740447998047       0.010619754717074577
178.9478302001953       0.023750420184714616
178.98214721679688      0.11868926974805269
179.98524475097656      0.02519351294546262
180.9253387451172       0.03197344045436236
180.9430694580078       0.049801071624316975
180.9759063720703       1.0
181.978515625           0.04546606444383581
182.97625732421875      0.08838288709113944
196.0063934326172       0.019741522920781386
196.95999145507812      0.030283398277879434
198.00254821777344      0.15957114941784173
199.0109405517578       0.01155560046085891
199.07131958007812      0.0537433446514613
199.18310546875         0.023268229727600814
200.007080078125        0.019151380072914823
284.98046875            0.016209447114349046


