CHARGE: 1
PRECURSORMZ: 301.10704961199997
COMPOUNDNAME: challenge29
FORMULA: C17H16O5
SMILES: O=C(C1=C(OC)C=C(OC)C=C1O)/C=C/C2=CC=C(O)C=C2
INCHIKEY: UXUFMIJZNYXWDX-VMPITWQZSA-N
PRECURSORTYPE: [M+H]+
IONMODE: positive
PARENTMASS: 300.099773612
NUM PEAKS: 60
57.070335388183594      0.17549864072427124
57.07670593261719       0.00943205659173186
57.43632507324219       0.00428053362660028
57.53623962402344       0.005717891786616617
58.06523132324219       0.005511974794549056
60.04465103149414       0.004214099725951688
62.573402404785156      0.0033416162928861484
70.06553649902344       0.03151313121762643
71.08562469482422       0.01507950166875586
75.2719497680664        0.007432588769623965
75.28065490722656       0.005587877766801116
75.57174682617188       0.006423152001532292
85.10079193115234       0.006170159608895093
88.07588958740234       0.06859187271057808
102.09168243408203      0.02073747927457857
106.08642578125         0.03733163184243513
107.04899597167969      0.0069910845962722025
111.04460144042969      0.003881626758553836
119.04924774169922      0.023116862134642865
123.04363250732422      0.006355038577185807
125.05986785888672      0.004701305144120267
136.03765869140625      0.006481324214310361
147.043701171875        0.11365958793817026
148.04698181152344      0.007938109030094141
151.03921508789062      0.0052102678379961674
153.05517578125         0.004541956382918062
166.02452087402344      0.01674667052988847
174.08938598632812      0.004300977287082543
180.97344970703125      0.00683360307247976
181.04904174804688      1.0
181.0750732421875       0.023019209882602247
182.0525665283203       0.08959851288704511
183.0544891357422       0.010913177176644437
207.879638671875        0.005017211710118977
218.12930297851562      0.019267588767187115
219.11123657226562      0.03002947554570851
228.11245727539062      0.005506072283471129
235.8683319091797       0.0032463578666194243
240.27037048339844      0.020603093010232828
245.12721252441406      0.008296347513046903
253.87864685058594      0.005976665609276216
258.2794494628906       0.006619664270104512
259.0923767089844       0.005885038472401196
259.1474609375          0.005824571430938656
260.1506042480469       0.03537558338223282
275.1746520996094       0.15300617303204753
275.2295837402344       0.0024502228927083558
276.1764221191406       0.015810578420803304
276.8955383300781       0.006703457691141753
284.29461669921875      0.031010871768978685
299.0899353027344       0.004448945190581277
300.2864685058594       0.008459193156054015
301.10626220703125      0.6076254929750446
301.1676940917969       0.013154742380940313
302.10833740234375      0.10570993280138491
302.18463134765625      0.3991497825353782
302.303955078125        0.8413566829188411
303.1127624511719       0.0084922734142433
303.1874694824219       0.05173164490395881
303.307373046875        0.06598147481172886


