CHARGE: 1
PRECURSORMZ: 481.35236525599987
COMPOUNDNAME: challenge248
FORMULA: C28H48O6
SMILES: O[C@H]1[C@@H](O)C[C@@](C(OC[C@]2([H])[C@]3([H])CC[C@@]4(C)[C@]2(CC[C@]4([H])[C@H](C)[C@@H](O)[C@H](O)[C@H](C(C)C)C)[H])=O)([H])[C@]3(C)C1
INCHIKEY: IXVMHGVQKLDRKH-KNBKMWSGSA-N
PRECURSORTYPE: [M+H]+
IONMODE: positive
PARENTMASS: 480.3450892559999
NUM PEAKS: 69
55.056060791015625      0.21435625308409514
61.030029296875         0.1033151682657003
65.08148193359375       0.06300036873290837
67.0553970336914        0.13407894524299563
69.072021484375         0.20764192346151433
71.087646484375         0.8926124118020435
79.05623626708984       0.16160813030195456
81.07212829589844       0.47186743212645854
83.0872573852539        0.13497413770579275
85.10266876220703       0.12837394147006184
91.05585479736328       0.0960246725378583
93.07017517089844       0.40751853360203777
95.08806610107422       1.0
96.09062957763672       0.07747792273588429
105.0727767944336       0.20233971768167902
107.0861587524414       0.416333397673324
109.06815338134766      0.1368048405806142
109.08921813964844      0.08163726865052688
109.10419464111328      0.22799242926986715
113.09873962402344      0.3145817618979171
119.08868408203125      0.25214367176987257
121.1045150756836       0.29294199359036727
123.11966705322266      0.11547935315307764
131.0885772705078       0.07609621182114455
133.10513305664062      0.24011959943256744
135.12091064453125      0.20497319717075746
137.06405639648438      0.07349402456914228
139.0778045654297       0.10418797324041974
143.0885772705078       0.07497519045741416
145.10247802734375      0.14142775451521952
147.1207275390625       0.17908464465454896
149.135986328125        0.13418747710539716
155.0729217529297       0.08214893348091086
157.10287475585938      0.0948551356451017
159.12037658691406      0.09541578124740627
161.13729858398438      0.19595022064795606
163.15138244628906      0.13820366778143828
171.1186065673828       0.09112385041272256
173.1365203857422       0.1332967416695282
175.15113830566406      0.09008924326419476
177.16883850097656      0.12049369454444271
189.1688232421875       0.08661055700889164
197.13670349121094      0.08163773389342126
199.154052734375        0.07602840732171724
219.83021545410156      0.11123578896969392
225.11502075195312      0.08350126430687034
285.19000244140625      0.08292838281644352
295.2104187011719       0.09276467835748863
297.2287902832031       0.21068276962891408
303.20440673828125      0.10718392346851158
313.2238464355469       0.18439673219346095
315.23126220703125      0.5597598542725265
316.2420654296875       0.11144645095227032
319.20172119140625      0.232446925276706
321.2161865234375       0.2364396956254439
325.2272644042969       0.10030423721640934
331.23431396484375      0.12951500549768225
333.2509765625          0.2087444374629062
343.2348327636719       0.1114832330555002
349.2484436035156       0.24126696284897778
350.25006103515625      0.0951647920107448
361.249267578125        0.1950460117778658
363.26611328125         0.12905482444599062
427.329345703125        0.15833068020818764
445.3313293457031       0.48828265299810336
446.3431091308594       0.16394078373552526
463.3568420410156       0.13987768615428958
481.3576965332031       0.4772079367013594
482.3699645996094       0.11501498491533658


