CHARGE: 1
PRECURSORMZ: 415.13874366399995
COMPOUNDNAME: challenge120
FORMULA: C22H22O8
SMILES: O=C1[C@]([C@]2([H])CO1)([H])[C@@](C(C=C3OC)=CC(OC)=C3OC)([H])C4=CC(OCO5)=C5C=C4[C@H]2O
INCHIKEY: YJGVMLPVUAXIQN-LGWHJFRWSA-N
PRECURSORTYPE: [M+H]+
IONMODE: positive
PARENTMASS: 414.13146766399996
NUM PEAKS: 25
115.05797576904297      0.00830146133100411
143.05116271972656      0.011226512009191027
153.0572052001953       0.012512213066082141
168.08155822753906      0.011714934030398588
169.08963012695312      0.02808948261521434
173.0636749267578       0.014531452753487335
185.0078125 0.03029332945714183
185.02508544921875      0.050865839729232566
185.05935668945312      1.0
186.06288146972656      0.11193698658689047
188.04763793945312      0.008388861422606524
199.045166015625        0.032706600293922486
200.0491485595703       0.015071843623827276
201.05776977539062      0.015329622662691469
202.06451416015625      0.014005368624712751
228.04962158203125      0.00820087115748335
229.04891967773438      0.19446038254531095
230.06005859375         0.027852549525892327
247.00509643554688      0.009031515615289969
247.05958557128906      0.11231081969473873
248.06890869140625      0.011555356004249962
338.12164306640625      0.012530136066965888
414.130615234375        0.15016394232472066
415.138427734375        0.03666702638650548
416.1336669921875       0.010507583213575063


