CHARGE: 1
PRECURSORMZ: 427.1598730319999
COMPOUNDNAME: challenge24
FORMULA: C20H26O10
SMILES: O[C@@]1([C@H]2O)[C@@]34[C@@]([C@@H](O)[C@H](O)[C@]1(OC4)CO)([H])[C@]([C@@](C(C)=CC5=O)([H])C[C@@]3([H])OC2=O)([C@@H]5O)C
INCHIKEY: QXKKRGMRXXMDDP-JVDXBALSSA-N
PRECURSORTYPE: [M+H]+
IONMODE: positive
PARENTMASS: 426.1525970319999
NUM PEAKS: 44
54.521663665771484      0.05636491599477501
69.03495025634766       0.12267112967884329
89.44173431396484       0.04713052058465835
95.05261993408203       0.07761041169316697
107.8554458618164       0.05167499774784919
124.71437072753906      0.05134452276924463
134.31503295898438      0.07213148056393856
192.09793090820312      0.0795809422998964
195.12107849121094      0.08393123620557633
199.115966796875        0.07054357348768074
211.1172332763672       0.13041207603261115
223.1182403564453       0.1768558736092969
227.1114044189453       0.08659608238367641
235.11581420898438      0.07491686185306969
239.10850524902344      0.06405663596234404
241.1272735595703       0.09775176793838115
245.12242126464844      0.07329219404531327
251.11300659179688      0.1123885072744471
253.1300506591797       0.11417630962569254
263.1098937988281       0.06339067496959597
267.11444091796875      0.05579366920408991
269.1250305175781       0.17374833340840504
279.04833984375         0.060608502995360566
279.1131591796875       0.06298134093058871
281.12274169921875      0.09092669249132922
283.1417541503906       0.0702119330210351
287.13134765625         0.09565026350164407
289.14874267578125      0.0639052126030359
299.1396789550781       0.0767588565830368
309.1239929199219       0.055897983198955004
315.1273193359375       0.0659440565740282
325.11590576171875      0.06808924147560921
327.1319580078125       0.1373563465609657
329.1474609375          0.1061102540426107
345.1435241699219       0.23467307778928878
355.1297302246094       0.0763871616143417
363.151123046875        0.07945055402909779
373.1286926269531       0.3184799333363362
391.1374816894531       0.6615032656186658
392.1509094238281       0.1833796450610333
409.1480407714844       1.0
410.16253662109375      0.11506990676095671
427.1600036621094       0.6315329039232467
428.1764831542969       0.1202289198684744


