CHARGE: 1
PRECURSORMZ: 193.049534736
COMPOUNDNAME: challenge153
FORMULA: C10H8O4
SMILES: O=C1C=CC2=CC(O)=C(OC)C=C2O1
INCHIKEY: SYTYLPHCLSSCOJ-UHFFFAOYSA-N
PRECURSORTYPE: [M+H]+
IONMODE: positive
PARENTMASS: 192.042258736
NUM PEAKS: 22
59.8917350769043        0.004835549172274312
105.03630828857422      0.010444753726600278
122.03887939453125      0.009270190550462746
133.00762939453125      0.01060232567181244
133.0281219482422       0.19841295493657932
134.03543090820312      0.016098051447550984
137.05929565429688      0.053546347420221775
138.065673828125        0.005024075938202246
149.02716064453125      0.012262095470609139
149.06356811523438      0.006891562082249221
150.0334930419922       0.007360142469150897
164.04603576660156      0.023057650777869247
165.05389404296875      0.02662747080933622
178.02581787109375      0.13434319474729833
179.03269958496094      0.009111207314122976
192.04690551757812      0.013401543098834576
192.9705810546875       0.010969621717526157
192.99391174316406      0.03146393108190404
193.01210021972656      0.04491231785911129
193.049072265625        1.0
194.05258178710938      0.10188825761722012
194.11770629882812      0.007083846195668562


