CHARGE: 1
PRECURSORMZ: 836.3851815040001
COMPOUNDNAME: challenge31
FORMULA: C45H57NO14
SMILES: CC1=C([C@@H](OC)C([C@@]2(C)[C@@]3([H])[C@](OC(C)=O)(CO4)[C@H]4C[C@@H]2OC)=O)C(C)(C)[C@@]([C@H]3OC(C5=CC=CC=C5)=O)(O)C[C@@H]1OC([C@H](O)[C@H](C6=CC=CC=C6)NC(OC(C)(C)C)=O)=O
INCHIKEY: BMQGVNUXMIRLCK-OAGWZNDDSA-N
PRECURSORTYPE: [M+H]+
IONMODE: positive
PARENTMASS: 835.3779055040001
NUM PEAKS: 152
59.05072021484375       0.020737833076310722
60.60707473754883       0.018429524657626345
62.02577590942383       0.038680715766902726
67.0560302734375        0.030020401133034984
69.03523254394531       0.021921205108971192
73.05888366699219       0.021108364136739315
73.06704711914062       0.05881292492552006
75.04570007324219       0.02217327947680029
77.04081726074219       0.04844532084500305
79.05699157714844       0.06712544447282
81.03570556640625       0.026106480577837987
81.07144927978516       0.03105877581585612
83.05120849609375       0.02958575146377046
85.0666732788086        0.020373827866014778
86.13436889648438       0.018376314091163415
91.04354095458984       0.031146026404629153
91.05724334716797       0.260679293863085
93.07281494140625       0.11942964652849633
95.05227661132812       0.1385376107210989
95.0876693725586        0.027972568461090468
97.06766510009766       0.030804523414607272
99.04612731933594       0.03165356869235802
103.05573272705078      0.023549447342720027
105.01948547363281      0.08477874084499952
105.03682708740234      1.0
105.07312774658203      0.27296668040074407
106.04014587402344      0.06565188936259038
107.07393646240234      0.03145356912356463
107.08912658691406      0.09444670119018306
109.06690216064453      0.03011548384198407
113.06219482421875      0.029075101628359384
114.12162017822266      0.02028939332045111
117.07340240478516      0.05478417360835985
118.0681381225586       0.05928838522098283
119.05308532714844      0.10827063530462812
119.08927154541016      0.07866468753096548
121.06881713867188      0.1430375487681483
121.08769226074219      0.02622005457051733
121.10523223876953      0.05880392678745262
123.084228515625        0.08317154468418163
129.0728302001953       0.027565204710501078
131.06979370117188      0.022627157441103777
131.08975219726562      0.07619849368968717
133.06878662109375      0.3231015336699326
133.10516357421875      0.12873417229713974
135.08453369140625      0.10334217468232833
136.0811004638672       0.08334004526965462
137.10035705566406      0.09457966023030658
143.08773803710938      0.0461696334268553
145.0692901611328       0.07633848733774971
145.10543823242188      0.0673486378974999
147.0492706298828       0.019783686685888507
147.08316040039062      0.03737537248771545
149.0637969970703       0.07010519219406902
149.0963134765625       0.09941479542062093
151.07969665527344      0.0858681865614546
155.09033203125         0.04516959433225543
157.1055450439453       0.06076978345155728
159.08509826660156      0.06259116389881886
161.06752014160156      0.044728902820284876
161.10165405273438      0.12131060938999048
163.08091735839844      0.09709196677913826
163.1170196533203       0.14642871380218458
165.09625244140625      0.10177028356323099
165.13267517089844      0.14249618646148507
167.08926391601562      0.03342312184438158
168.09664916992188      0.03894504707280229
169.10418701171875      0.04279777368903948
171.08631896972656      0.02679133733628009
171.12026977539062      0.02795882650023382
173.09893798828125      0.040260235503053556
175.0809783935547       0.04643127794152874
175.1166229248047       0.056007683881901485
176.1240234375          0.027194609024080864
177.06040954589844      0.12357832718585234
177.09616088867188      0.0213873559175892
177.1327362060547       0.04367663492428628
179.08871459960938      0.0332844757169954
180.06686401367188      0.029662953398356944
180.09896850585938      0.038650591804680653
181.09683227539062      0.04552199573950263
182.08700561523438      0.08590233108536817
183.0867462158203       0.030753215877344423
185.1014862060547       0.03399720690314272
187.11636352539062      0.024477531583244613
189.09584045410156      0.029452245165249816
191.07662963867188      0.03043385622708995
193.10643005371094      0.07249251482514747
194.1132049560547       0.06810881556166598
195.12322998046875      0.08224219542424659
197.0996551513672       0.052180714160878085
197.13778686523438      0.0387553024113602
199.11642456054688      0.061447762354465564
201.12986755371094      0.021700999605137942
206.1138916015625       0.03523511089754161
207.11976623535156      0.051245298307857234
209.09579467773438      0.05723134815780613
209.13917541503906      0.06218541167295671
210.10658264160156      0.0275269598736723
211.11679077148438      0.08139357090295193
211.15658569335938      0.02549222840275261
220.12844848632812      0.044359110146186084
221.0943145751953       0.029047702957954186
221.1395721435547       0.05763926741691924
223.1171112060547       0.05676656352615075
224.12063598632812      0.02859767505272601
225.1295166015625       0.04296258096784237
226.07720947265625      0.05771670860517684
227.1027069091797       0.05535663889226716
227.15213012695312      0.030567923534218708
235.15650939941406      0.08349914071081507
237.12564086914062      0.10615634786300161
238.1388702392578       0.044720297938251566
239.14988708496094      0.035630434963394075
245.14202880859375      0.02297881908700007
247.1552734375          0.027419952981758554
248.12548828125         0.0295032804483352
253.16659545898438      0.05662265931808458
255.1431427001953       0.04185256493575638
263.1427307128906       0.11766593446609845
264.1529846191406       0.030136934171117923
265.17138671875         0.028381934242399015
281.1640319824219       0.09101414252100284
283.1376647949219       0.0411972161300843
291.1486511230469       0.07623987632466232
295.17913818359375      0.07963849947313592
309.14874267578125      0.13168592458882689
311.1734313964844       0.06230468100302531
313.19207763671875      0.05504950867966118
323.1622619628906       0.12802402340061506
327.20037841796875      0.08394127049485448
341.17303466796875      0.20963477063592065
342.1908264160156       0.0533707784212241
355.2033996582031       0.08213981135326541
359.19305419921875      0.0397467833746441
371.1942138671875       0.035511921894929556
373.20001220703125      0.17758060879686138
374.2139892578125       0.028361443677991795
383.19451904296875      0.04141217867846964
401.20098876953125      0.09803391123233395
402.2057189941406       0.03132138284529838
419.2148132324219       0.038172983726262294
433.2209167480469       0.2590100622503952
434.2384948730469       0.060740825507226585
445.2225036621094       0.027689154612388373
463.2266540527344       0.06062535673547375
523.2338256835938       0.22611850156228797
524.2557983398438       0.05788218414423351
537.27099609375         0.028526976967934596
555.2802734375          0.08368215601900196
836.4159545898438       0.09108907567077709
837.4082641601562       0.030707061919158087


