CHARGE: 1
PRECURSORMZ: 243.101570308
COMPOUNDNAME: challenge163
FORMULA: C15H14O3
SMILES: O=C(C(CC=C(C)C)=C1O)C2=CC=CC=C2C1=O
INCHIKEY: CIEYTVIYYGTCCI-UHFFFAOYSA-N
PRECURSORTYPE: [M+H]+
IONMODE: positive
PARENTMASS: 242.094294308
NUM PEAKS: 38
57.07167434692383       0.020323827295798312
75.27264404296875       0.009541072477239383
103.05633544921875      0.016395586364871862
105.03632354736328      0.03230714110720909
114.96027374267578      0.025741253926822482
119.92001342773438      0.010465379182482333
131.05162048339844      0.015539785038729182
133.03224182128906      0.02884199098493722
155.05445861816406      0.03950249322231344
159.01611328125         0.033216640580085256
159.04920959472656      0.4719034906815191
160.05274963378906      0.03987664751474893
169.10443115234375      0.015205166031769614
173.06427001953125      0.017918400753852006
178.96505737304688      0.02802467233288429
179.0897979736328       0.02262384137584749
181.06944274902344      0.02119879180300617
183.04989624023438      0.11493283135421552
183.08546447753906      0.046367262172218475
184.05160522460938      0.017127234422921255
186.98663330078125      0.03324307725594209
187.00326538085938      0.053819451465549006
187.0386199951172       0.9699567083718503
188.04884338378906      0.13221453525088775
197.10020446777344      0.024746035636040414
201.0614013671875       0.1183212489333538
202.063232421875        0.013091800902943018
207.08522033691406      0.023561079569944427
225.09005737304688      0.17288597586660415
226.09689331054688      0.014140418851131842
241.08673095703125      0.01348872519176218
242.29217529296875      0.03146372168372272
243.02101135253906      0.032081686049172255
243.10081481933594      1.0
243.22137451171875      0.01712837516764624
243.2919464111328       0.013565910041842117
244.1045379638672       0.1657768015279248
245.1342315673828       0.023157224342329735


