CHARGE: 1
PRECURSORMZ: 517.185693856
COMPOUNDNAME: challenge26
FORMULA: C30H28O8
SMILES: O=C(C1=C2C(C=CC(C)(C)O2)=C(O)C(CC3=C(O)C(C)=C(O)C(C(C)=O)=C3O)=C1O)/C=C/C4=CC=CC=C4
INCHIKEY: DEZFNHCVIZBHBI-ZHACJKMWSA-N
PRECURSORTYPE: [M+H]+
IONMODE: positive
PARENTMASS: 516.1784178559999
NUM PEAKS: 27
55.544410705566406      0.014665609625428537
77.03501892089844       0.014978935607064052
91.055908203125         0.01513910155468081
100.85291290283203      0.013213905630250773
109.06729888916016      0.028033769774034344
120.11952209472656      0.013529385176721713
121.0679702758789       0.018055720233975097
135.0842742919922       0.12050843859157111
177.0240478515625       0.03418079842183208
177.06004333496094      0.07581647965024667
189.02349853515625      0.13394140698134213
189.06019592285156      0.06944441207522192
190.0267333984375       0.023634104588324344
195.0656280517578       0.13894427262861134
196.07351684570312      0.018236188764875923
219.06471252441406      0.4454199233341439
220.07513427734375      0.04140115811899082
231.06471252441406      0.8969508321868155
232.07020568847656      0.12053855006081529
237.08119201660156      0.019380005819338825
249.07464599609375      0.08628607808803031
323.1268005371094       0.48464268133173716
324.13055419921875      0.09445691954280157
325.14111328125         0.017206612812049014
335.0414123535156       0.03844842145659948
335.1267395019531       1.0
336.130126953125        0.20673944044749284


