CHARGE: 1
PRECURSORMZ: 592.384393656
COMPOUNDNAME: challenge12
FORMULA: C33H53NO8
SMILES: C[C@]1([C@]2([H])C[C@@H](O[C@]3([H])O[C@@H]([C@@H](O)[C@H](O)[C@H]3O)CO)CC1)[C@]4([H])[C@](CC2=O)([H])[C@@]5([H])[C@@]([C@@]6([H])[C@@]([C@](O)([C@@]7([H])N(C[C@@H](C)CC7)C6)C)([H])CC5)([H])C4
INCHIKEY: DHQFYEJMFMYGCV-DLJWJMOOSA-N
PRECURSORTYPE: [M+H]+
IONMODE: positive
PARENTMASS: 591.377117656
NUM PEAKS: 20
63.81727981567383       0.04680948124338811
63.82417678833008       0.018326945444276998
65.81826782226562       0.04156977649034372
65.92988586425781       0.013651238502067155
96.08413696289062       0.0174295637466824
138.10595703125         0.015812547142301563
138.13180541992188      0.25350930273052696
139.13392639160156      0.014101905022762288
236.34344482421875      0.011484554474110719
394.322509765625        0.017830658573940984
412.3375549316406       0.053063560583977154
413.3352355957031       0.015367040293339611
574.0802612304688       0.023452559523221242
574.3728637695312       1.0
575.3753662109375       0.30745728931676863
576.3884887695312       0.030728842906950077
592.0724487304688       0.020764020310250982
592.38330078125         0.9481433918656089
593.3855590820312       0.3421771518413351
594.4136352539062       0.04009873035841446


