CHARGE: 1
PRECURSORMZ: 579.17083164
COMPOUNDNAME: challenge97
FORMULA: C27H30O14
SMILES: OC1=C([C@H]2[C@@H]([C@@H]([C@@H](O)[C@H](C)O2)O)O)C(O)=C(C(C=C(C3=CC=C(O)C=C3)O4)=O)C4=C1[C@@H]5O[C@@H]([C@@H](O)[C@H](O)[C@H]5O)CO
INCHIKEY: TWBWSPDILHVKEV-RSPRXDBDSA-N
PRECURSORTYPE: [M+H]+
IONMODE: positive
PARENTMASS: 578.1635556399999
NUM PEAKS: 77
52.60030746459961       0.03513594474572674
60.3485107421875        0.040654843078123934
64.35061645507812       0.051668607898081094
69.03585052490234       0.23519725995523622
73.1094970703125        0.0337396854317779
115.19966888427734      0.030676360091958024
120.23883819580078      0.03155017896672324
121.02896881103516      0.14945548997430688
202.68260192871094      0.035112011036628164
203.03677368164062      0.03473926411451183
230.89186096191406      0.032943316194847076
257.0527038574219       0.041746623710660714
272.13238525390625      0.030988529876608596
294.0509948730469       0.16504088763930802
295.0587463378906       0.2987732065004529
296.07000732421875      0.05745199345727661
307.0594482421875       0.28915720041724213
308.0773010253906       0.1424483700119384
309.0880432128906       0.11004004193746349
313.0787353515625       0.03810709780468801
319.06610107421875      0.05731463993878813
321.0862731933594       0.10022183058810091
322.0892333984375       0.03952499490789628
325.06915283203125      0.2839357035819417
326.08221435546875      0.04715303109984547
333.0811462402344       0.06567984441276999
334.0935363769531       0.03250011694128485
335.0984802246094       0.06975540338115688
337.06982421875         0.49362250980791395
338.083984375           0.09314633512038362
343.10406494140625      0.05341099196225395
347.0967712402344       0.09157078637637135
349.0868225097656       0.12864163011878751
351.0936584472656       0.07549564116651643
355.0938415527344       0.10559692126552343
359.0984191894531       0.06353094560347874
361.0913391113281       0.03803657472422123
363.0998229980469       0.11838534083208443
367.0931701660156       0.04840307500988295
375.08416748046875      0.19405130912527627
376.095703125           0.05187930304673949
377.1128845214844       0.08813327859397906
379.07843017578125      0.25020247913332944
380.089111328125        0.05322484900607028
387.0813293457031       0.22071074521157846
388.0970458984375       0.05827016252154696
391.0971374511719       0.11573088321288412
393.1024475097656       0.0679283669723779
403.0946960449219       0.05679599484224119
405.0959167480469       0.4112183591207885
406.1126403808594       0.08710000511949044
409.1038818359375       0.04483945595664398
417.10565185546875      0.0392544187008486
421.10137939453125      0.05398060374055825
423.1089782714844       0.2506360473911449
424.11834716796875      0.0652832527883878
429.10968017578125      0.05857724522337301
439.1084289550781       0.03853487377169658
441.1159362792969       0.36859418281284084
442.1259460449219       0.06993613289612934
447.1195983886719       0.052839695900807206
457.1303405761719       0.08812496216068495
459.14166259765625      0.10642196439595235
475.1404113769531       0.1404806799851805
481.12774658203125      0.08206907419529243
489.1280822753906       0.07573033164438836
499.14373779296875      0.04321190440005232
507.1388244628906       0.05745483711147103
525.1375732421875       0.39083292794905106
526.16015625            0.09944317142865698
543.150146484375        0.6351523201771679
544.1519775390625       0.1813617099653109
561.1602783203125       0.5338378964839033
562.1859130859375       0.16059806822126335
563.1754760742188       0.04259469450627554
579.1716918945312       1.0
580.1678466796875       0.33316135691765486


