CHARGE: 1
PRECURSORMZ: 605.4411802599999
COMPOUNDNAME: challenge142
FORMULA: C36H60O7
SMILES: C[C@]12[C@@](C[C@@H](O)[C@@]3([H])[C@]2(CC[C@@H]3C(CC/C=C(C)/C)=C)C)([H])[C@@]4([C@@](C(C)([C@@H](O[C@]5([H])O[C@@H]([C@@H](O)[C@H](O)[C@H]5O)CO)CC4)C)([H])CC1)C
INCHIKEY: WMGBQZAELMGYNO-YMWSGFAJSA-N
PRECURSORTYPE: [M+H]+
IONMODE: positive
PARENTMASS: 604.4339042599998
NUM PEAKS: 75
85.02865600585938       0.09322267871217717
91.05480194091797       0.012266892392681032
93.07028198242188       0.04161187598673202
95.08567810058594       0.1276576718399631
97.02835845947266       0.032211810099170894
97.10059356689453       0.015465519474575196
99.04434204101562       0.01285431795364132
99.07947540283203       0.022221502719764048
105.0697021484375       0.02945510700507527
107.08600616455078      0.07757052642496397
109.02760314941406      0.009652446956664234
109.0641860961914       0.02330925019943504
109.10118103027344      0.08301652929797433
110.10380554199219      0.011267461643366224
111.11595153808594      0.008165457355512834
119.08540344238281      0.06375705392551656
121.1009521484375       0.0590594695362079
123.07980346679688      0.013258956965176327
123.11739349365234      0.03970182074286748
127.03852081298828      0.026371108823622084
133.10105895996094      0.06369566290250431
134.1054229736328       0.00872472267519133
135.11697387695312      0.0867277248006485
136.1197052001953       0.009068040595772502
137.1315155029297       0.014658742221914033
145.0486297607422       0.011556217639546047
145.09994506835938      0.016481994065166445
147.11660766601562      0.06411511352401121
149.1313018798828       0.03412372646821667
150.13389587402344      0.006712459863101152
151.35121154785156      0.010428761804680648
151.48281860351562      0.007860604864341205
159.11529541015625      0.025093791384859742
161.13270568847656      0.04010869105327959
161.15774536132812      0.007763286945639808
163.14724731445312      0.03167639161141127
173.13287353515625      0.012417904612045734
175.14744567871094      0.026745898035344044
177.16549682617188      0.006726447673424941
187.14776611328125      0.01829773054320806
189.16343688964844      0.18728830167277186
190.16567993164062      0.02121356543486387
191.1793212890625       0.08118336202126639
192.18426513671875      0.012654922074129205
201.16232299804688      0.012455604518522515
203.1775360107422       0.0592983910151351
205.1931915283203       0.024312555184785936
207.17214965820312      0.03666310683273284
215.1797637939453       0.016850810146672477
217.1944122314453       0.03159651614671927
221.18858337402344      0.0802169420008049
229.19381713867188      0.007761737251225374
231.21072387695312      0.014334123201325079
245.22596740722656      0.018700744333705548
271.2392578125          0.028136302139552493
285.25592041015625      0.007498595036973657
295.2431335449219       0.008057751728854753
331.09588623046875      0.020436801156818722
338.8370056152344       0.006446660230629737
369.22235107421875      0.008472687536670506
407.3679504394531       0.07453343866829429
408.3669128417969       0.019192476730788235
425.3760986328125       0.06101588134295332
426.38006591796875      0.019489798005482496
443.384033203125        0.007858257012033416
587.4256591796875       0.026991467721957714
588.4328002929688       0.008357891731716784
603.53857421875         0.015807806130401635
604.5425415039062       0.014444204653114313
605.4393310546875       1.0
606.21435546875         0.014747334950794088
606.4414672851562       0.3735120248230387
607.2941284179688       0.009478014957150708
607.4480590820312       0.05821387719384513
666.4480590820312       0.008168931580174796


