CHARGE: 1
PRECURSORMZ: 425.1958646159999
COMPOUNDNAME: challenge123
FORMULA: C25H28O6
SMILES: COC1=C(C=CC(/C=C/C(C(C)(C)C(/C=C/C2=CC(OC)=C(OC)C=C2)=O)=O)=C1)OC
INCHIKEY: VMMZAMVBGQWOHT-UTLPMFLDSA-N
PRECURSORTYPE: [M+H]+
IONMODE: positive
PARENTMASS: 424.1885886159999
NUM PEAKS: 16
70.04745483398438       0.012690187078448172
107.60208892822266      0.014892981659201162
148.0563507080078       0.04043407260035305
163.075927734375        0.1574911209373377
175.0812530517578       0.05419724265093448
188.087646484375        0.026598250446109407
189.09487915039062      0.022039982615629068
191.0336151123047       0.05706631552920747
191.0699462890625       1.0
192.08023071289062      0.08238140006478409
269.1207580566406       0.024235842375314575
287.1280822753906       0.10787675880191593
313.0198669433594       0.02403770942225238
424.2037658691406       0.04610534027941495
425.21209716796875      0.05417349008017511
426.213623046875        0.01716083585857134


