CHARGE: 1
PRECURSORMZ: 401.12309359999995
COMPOUNDNAME: challenge128
FORMULA: C21H20O8
SMILES: O=C1OC[C@]2([H])[C@H](O)C3=C(C=C4OCOC4=C3)[C@@H](C5=CC(OC)=C(O)C(OC)=C5)[C@]21[H]
INCHIKEY: YVCVYCSAAZQOJI-JHQYFNNDSA-N
PRECURSORTYPE: [M+H]+
IONMODE: positive
PARENTMASS: 400.11581759999996
NUM PEAKS: 22
139.04246520996094      0.00911530216614552
148.62110900878906      0.008129005644146198
154.0655517578125       0.017725421205256272
167.07334899902344      0.014641610242675046
173.0626220703125       0.011672714093789824
175.05654907226562      0.008365385831998173
185.0078125 0.03188230486341138
185.02505493164062      0.046095318693377484
185.05929565429688      1.0
186.0624237060547       0.11607644090293634
189.0594940185547       0.012209922091162706
199.04400634765625      0.02939151690856243
200.05206298828125      0.022997198772224954
201.0592803955078       0.02157526805895963
202.06398010253906      0.01884414344060774
229.04896545410156      0.18739807629023425
230.0585479736328       0.020318715215440333
246.0605010986328       0.023569617996659242
247.0591278076172       0.1090390064591653
400.0049743652344       0.010400621557278875
400.1131286621094       0.15667381522323318
401.114990234375        0.04616301636581636


