CHARGE: 1
PRECURSORMZ: 285.075749484
COMPOUNDNAME: challenge156
FORMULA: C16H12O5
SMILES: O=C(C(C1=CC=C(O)C=C1)=CO2)C3=C2C=C(O)C(OC)=C3
INCHIKEY: DXYUAIFZCFRPTH-UHFFFAOYSA-N
PRECURSORTYPE: [M+H]+
IONMODE: positive
PARENTMASS: 284.06847348400004
NUM PEAKS: 24
76.87222290039062       0.004486964140453654
139.54197692871094      0.004832550394507281
162.0490264892578       0.004621737042475173
167.0371551513672       0.006528882341110131
168.06288146972656      0.005180275007062908
169.07003784179688      0.014592029694469029
182.9857177734375       0.005049256438929245
186.07264709472656      0.005352941630265524
196.05441284179688      0.005697990243066312
197.06126403808594      0.027203133786467368
214.06610107421875      0.009327526443826763
225.06239318847656      0.02668399316307641
229.08570861816406      0.032853857651114635
242.05740356445312      0.054512339919841495
243.06507873535156      0.010857392673978002
250.0748291015625       0.005972200043364623
257.083251953125        0.0051307254565536335
270.051513671875        0.16524858099106843
271.05523681640625      0.02620079072258416
284.97515869140625      0.029787857703101047
285.0087890625          0.04762855664835921
285.07489013671875      1.0
286.0785217285156       0.18373935645649242
287.0918884277344       0.014632092567846176


