CHARGE: 1
PRECURSORMZ: 377.14958312
COMPOUNDNAME: challenge11
FORMULA: C22H20N2O4
SMILES: O=C1[C@](O)(CC)C2=C(CO1)C(N3CC4=C(CC)C5=CC=CC=C5N=C4C3=C2)=O
INCHIKEY: MYQKIWCVEPUPIL-QFIPXVFZSA-N
PRECURSORTYPE: [M+H]+
IONMODE: positive
PARENTMASS: 376.14230712
NUM PEAKS: 27
57.03474044799805       0.013606971800583267
131.98887634277344      0.011144572398217548
196.10508728027344      0.03089438854467602
197.108154296875        0.019153786612634147
209.110107421875        0.014235767690840884
233.11228942871094      0.032448353542625485
234.1194610595703       0.010751353037758999
247.1276092529297       0.02015799939446412
248.13096618652344      0.05760144224413471
249.13941955566406      0.01927950991270592
275.1251525878906       0.018483865588087362
276.1325988769531       0.02855058301295001
277.1419982910156       0.051630692168115604
287.16546630859375      0.010400370765153212
303.126220703125        0.010800255251776466
305.1628723144531       0.047919553085312094
306.17694091796875      0.011231477570859854
318.1458740234375       0.027319846955512823
333.1588134765625       0.5052372986464463
334.1604919433594       0.11395664175693707
348.1199951171875       0.017740283905408424
376.2630615234375       0.01568047105001593
376.99468994140625      0.024554636085008356
377.148193359375        1.0
377.2979431152344       0.010076703902241031
378.15118408203125      0.24470164547389578
379.165771484375        0.01702107814426595


