CHARGE: 1
PRECURSORMZ: 379.12884767599996
COMPOUNDNAME: challenge54
FORMULA: C21H18N2O5
SMILES: O=C1[C@](O)(CC)C2=C(CO1)C(N3CC4=CC5=CC(OC)=CC=C5N=C4C3=C2)=O
INCHIKEY: KLFJSYOEEYWQMR-NRFANRHFSA-N
PRECURSORTYPE: [M+H]+
IONMODE: positive
PARENTMASS: 378.121571676
NUM PEAKS: 34
53.2963752746582        0.009445763701192381
57.03485870361328       0.014561573240631434
69.45130157470703       0.010096409866706301
81.29524230957031       0.010613828278999135
85.70189666748047       0.009752076820038138
87.60664367675781       0.010545172003540125
114.11119079589844      0.010344371756275067
129.82122802734375      0.009495050576816348
146.7670135498047       0.010207213927013603
198.0856475830078       0.045748607364965714
211.0882110595703       0.012272912981177346
235.09278869628906      0.019740282242194953
236.10256958007812      0.018239039903193987
243.46322631835938      0.0108729885133708
249.11204528808594      0.034828087190989905
250.11122131347656      0.07188583606258443
251.11685180664062      0.0487297375350862
276.0953369140625       0.01584918876107492
277.1014099121094       0.017345544231149906
278.1065673828125       0.055771260250280556
279.1100158691406       0.08593058058478387
280.1216735839844       0.01715906522476514
292.1298522949219       0.03208706751618704
307.150634765625        0.03058425314676992
320.126220703125        0.015489428797537383
333.1336669921875       0.011063815052340994
335.1381530761719       0.43869257701308406
336.1423645019531       0.09345369051203363
350.09600830078125      0.02577943048791527
379.02020263671875      0.035193995150918186
379.1278991699219       1.0
380.0267639160156       0.012330359964546437
380.13037109375         0.23520508314706792
381.14678955078125      0.023684635004489148


