CHARGE: 1
PRECURSORMZ: 963.5523064040003
COMPOUNDNAME: challenge81
FORMULA: C48H82O19
SMILES: C[C@]12[C@](CC=C3[C@@]2([H])CC[C@H](O[C@]4([H])O[C@@H]([C@@H](O)[C@H](O)[C@H]4O)CO)C3(C)C)([H])[C@]5([C@@](C)([C@]([C@H](C)CC[C@H](C(C)(O)C)O[C@H]6[C@@H]([C@H]([C@H](O)[C@@H](CO)O6)O)O[C@]7([H])O[C@@H]([C@@H](O)[C@H](O)[C@H]7O)CO)([H])CC5)C[C@H]1O)C
INCHIKEY: QATISCJMIITVAB-CNEPTXDISA-N
PRECURSORTYPE: [M+H]+
IONMODE: positive
PARENTMASS: 962.5450304040003
NUM PEAKS: 73
67.05608367919922       0.04821744998340548
69.03543090820312       0.0674594491534099
69.07195281982422       0.0831489516086451
71.05107116699219       0.050082755420967504
73.50375366210938       0.026257975507183597
81.07240295410156       0.14725077099880712
83.08769226074219       0.05165373368025586
85.03121948242188       0.8420004698189796
91.04167175292969       0.04699193279864485
93.07312774658203       0.08080093427706604
95.08865356445312       0.27836961432279794
97.03153228759766       0.14298421392065017
97.10355377197266       0.029524837132563306
103.17256927490234      0.03327241967954251
105.07327270507812      0.10762569711815624
107.0890884399414       0.18046022459717873
109.03079223632812      0.07192121413185319
109.10472106933594      0.2521903053769489
119.08936309814453      0.21902506567767616
121.1050796508789       0.20758498025898234
123.12116241455078      0.11696162354784449
127.04304504394531      0.24111723236212268
127.1158218383789       0.17768443021517924
131.08859252929688      0.06349394141621328
133.105224609375        0.1629170047531457
135.12136840820312      0.1723986636290068
137.13633728027344      0.06202677574198533
143.11085510253906      0.03315826077270136
145.04971313476562      0.35466470441813025
145.1059112548828       0.11828948850074945
147.12167358398438      0.14619239868450687
148.1255340576172       0.037594673474462215
149.1372833251953       0.11915284653998795
159.1173553466797       0.18217683849002766
161.13748168945312      0.1710759676277482
162.13856506347656      0.03470821385815131
163.06500244140625      0.13702348663871458
163.1536407470703       0.09855001982722299
171.11944580078125      0.0498180402743161
173.13845825195312      0.18349594821538828
175.1485137939453       0.15157371510974477
177.1692352294922       0.04482350286282471
179.14610290527344      0.036472333278916226
185.1396026611328       0.04368507914591004
187.154052734375        0.18523874360598996
189.1704559326172       0.2111915615500578
190.17147827148438      0.034353589259410115
191.1857452392578       0.08081145738709528
199.15274047851562      0.034244984450042405
201.16424560546875      0.15313480585484965
203.1798095703125       0.1423966708045219
207.18052673339844      0.04454971258608409
215.18380737304688      0.08142595650187442
253.20278930664062      0.03564781814341763
256.3348693847656       0.03584812764744611
266.0400695800781       0.03323907194385987
325.1119079589844       0.4910176079748539
326.1199645996094       0.043385292578153205
405.34613037109375      0.18454403313732398
406.3579406738281       0.07192714074742165
423.3612976074219       1.0
424.36334228515625      0.27222654259027584
425.3816223144531       0.042393851452882866
441.37237548828125      0.8378522430084794
442.3778076171875       0.24280769843117098
443.3866271972656       0.049776941215785915
459.3819885253906       0.414840359874873
460.4041748046875       0.11903939899538478
585.4215087890625       0.0537154003509634
603.4217529296875       0.370929964106261
604.4310302734375       0.1658458304104343
621.455078125           0.11682254170721011
765.4973754882812       0.05022180358764979


