CHARGE: 1
PRECURSORMZ: 373.12817898
COMPOUNDNAME: challenge104
FORMULA: C20H20O7
SMILES: O=C1C=C(C2=CC(OC)=C(OC)C(OC)=C2)OC3=CC(OC)=CC(OC)=C13
INCHIKEY: GIKVSFNAEBQLGB-UHFFFAOYSA-N
PRECURSORTYPE: [M+H]+
IONMODE: positive
PARENTMASS: 372.12090298
NUM PEAKS: 30
51.73817443847656       0.007682869451654038
94.06163787841797       0.008013669963026456
130.47213745117188      0.009013160422077216
163.74887084960938      0.009339541066977841
167.03628540039062      0.012540644689553862
181.05567932128906      0.010553531844070306
219.5686492919922       0.009315098151916562
233.96710205078125      0.009324683177178765
269.0887145996094       0.021516310933087365
283.0962829589844       0.08368215110306786
284.1048583984375       0.0489898314202864
311.09967041015625      0.02017607880088265
312.0988464355469       0.15128920853955813
313.1120300292969       0.029419043191079818
314.0863952636719       0.019159891592609557
315.0967712402344       0.03172343672514756
327.089111328125        0.050633968288006814
328.0683288574219       0.01603730860390107
329.1130676269531       0.032619120857457745
339.0980224609375       0.026947339393216075
340.1047668457031       0.024409424077341948
343.0804443359375       0.10139186265066351
344.0954284667969       0.02557935062535623
357.09661865234375      0.0596441090183163
358.102294921875        0.05585753975697407
372.9729919433594       0.029567060761311638
373.1273498535156       1.0
373.26104736328125      0.011496636379412433
374.1292724609375       0.20153243924754383
375.1471252441406       0.0299910408944977


