CHARGE: 1
PRECURSORMZ: 565.1551815759998
COMPOUNDNAME: challenge179
FORMULA: C26H28O14
SMILES: O=C1C=C(C2=CC=C(O)C=C2)OC3=C([C@H]4[C@@H]([C@H]([C@@H]([C@@H](CO)O4)O)O)O)C(O)=C([C@H]5[C@@H]([C@H]([C@H](CO5)O)O)O)C(O)=C13
INCHIKEY: OVMFOVNOXASTPA-VYUBKLCTSA-N
PRECURSORTYPE: [M+H]+
IONMODE: positive
PARENTMASS: 564.1479055759997
NUM PEAKS: 53
73.60968780517578       0.06833562219393373
121.03141784667969      0.18012896792395258
193.6604461669922       0.0745580732404803
203.03562927246094      0.09127726164352606
294.0610656738281       0.1845623052816562
295.05859375            0.5883177095043199
296.0723876953125       0.15263790661434412
297.08001708984375      0.07287295481215272
307.07135009765625      0.35814288311622766
308.078369140625        0.19590758822260868
309.0786437988281       0.12263276693906205
321.0868835449219       0.19063535247748264
322.0832214355469       0.07460764898964409
325.0686950683594       0.5416837057166324
326.0845947265625       0.10274793574179947
333.0820617675781       0.15630728275282987
335.0999755859375       0.080795933813543
337.0704040527344       0.4775169855191495
338.0843505859375       0.08267460557347564
347.0986022949219       0.08604417030771808
349.08087158203125      0.2623132288316211
351.09539794921875      0.1826888043834856
355.0902099609375       0.0970665566799576
361.0862731933594       0.20291499311173106
363.0929870605469       0.10052289689850098
367.0859680175781       0.07265186238488963
375.0904541015625       0.09131645086100494
379.0805358886719       0.7698434194950056
380.0907287597656       0.10663524981302451
391.09246826171875      0.1834424597257081
397.1044006347656       0.22208252630848432
403.0927429199219       0.20531785762217644
409.1005554199219       0.18407050883143758
415.10150146484375      0.13993262429855513
421.1028747558594       0.1356605694350128
427.1167297363281       0.09601268666004414
433.1082763671875       0.22029613247500493
439.1107482910156       0.08619394606617327
445.1053466796875       0.31609995933569784
446.1215515136719       0.09483338963628105
457.1082763671875       0.4751199281463502
458.12432861328125      0.12368419043339314
469.1290588378906       0.2814520489589021
481.1318359375          0.12287810058134466
499.1412048339844       0.25765504412277523
500.16021728515625      0.0883745172906448
511.1316833496094       0.10084951254456441
529.1336059570312       0.35174255711355723
530.1541137695312       0.11957153612125647
547.1426391601562       1.0
548.1653442382812       0.2291997470382164
565.1573486328125       0.5082590043612321
566.1677856445312       0.10031866130134943


