CHARGE: 1
PRECURSORMZ: 483.1285729039999
COMPOUNDNAME: challenge73
FORMULA: C25H22O10
SMILES: O=C1[C@H](O)[C@@H](C2=CC=C(O[C@H](C3=CC=C(O)C(OC)=C3)[C@@H](CO)O4)C4=C2)OC5=CC(O)=CC(O)=C15
INCHIKEY: FDQAOULAVFHKBX-HKTJVKLFSA-N
PRECURSORTYPE: [M+H]+
IONMODE: positive
PARENTMASS: 482.1212969039999
NUM PEAKS: 116
53.14189910888672       0.010375132502892096
91.057373046875         0.029937150389636027
102.04853057861328      0.016291775171873413
103.05802917480469      0.027329902119289217
105.03598022460938      0.01468933936252733
105.07268524169922      0.015391090811997231
107.05181121826172      0.018519120625930488
111.04719543457031      0.03043965955510184
119.05296325683594      0.05048180934200531
121.03228759765625      0.03414998166324487
121.06770324707031      0.016674265579836003
123.048095703125        0.027618916204595965
124.05619812011719      0.03708114636530427
130.04547119140625      0.06950770780660961
131.05316162109375      0.17785527808828372
132.0588836669922       0.009917739562171573
133.02903747558594      0.05853431728453548
133.0684814453125       0.021787292130059786
135.0484161376953       0.0418668101529281
137.02633666992188      0.011491056719026753
137.0639190673828       0.21425109823987534
138.06692504882812      0.01826419905614119
139.04200744628906      0.020388727834655607
146.04014587402344      0.019962131215752344
147.02049255371094      0.028107255604320924
147.0487823486328       0.4108478831129768
148.0526580810547       0.032613288880836276
149.0280303955078       0.20641284516266353
149.0637664794922       0.054451868783956484
150.0308837890625       0.012715136580072147
150.041748046875        0.010508735263625614
150.07208251953125      0.06250049590767884
151.0454559326172       0.009693849756606691
151.07994079589844      0.02725596637902444
152.08477783203125      0.010238614578440984
152.978515625           0.026986813623735898
152.9921417236328       0.06706222780582927
153.02317810058594      1.0
154.0269775390625       0.0844062531028352
159.0486297607422       0.016736147123815538
161.06497192382812      0.11505120933775415
162.03878784179688      0.02764530167783857
162.0725555419922       0.4094175579780681
163.0450897216797       0.018525744860612998
163.07420349121094      0.1860602116726877
164.0819549560547       0.016229643399248594
165.02359008789062      0.025805543334287417
165.05712890625         0.014700879452686805
167.03916931152344      0.09831144982222301
171.0323486328125       0.012932492005786233
175.0438690185547       0.010119616071368777
177.02215576171875      0.02569216246030191
177.05979919433594      0.0646445231846758
178.06332397460938      0.014857305340676382
179.0433349609375       0.009418117694051495
179.07717895507812      0.025305240730511866
180.0831298828125       0.04093733812481456
187.0450439453125       0.023504413414555673
195.02845764160156      0.21637321913638033
196.03578186035156      0.01765109224166722
201.06039428710938      0.034952305692270376
203.03909301757812      0.02050965651450533
213.06036376953125      0.03904826653969489
223.07785034179688      0.01704611444595629
229.0500030517578       0.08626702610297875
230.0572052001953       0.01492382748862306
231.07034301757812      0.01676842775646052
237.05772399902344      0.013669030923965724
239.07855224609375      0.01548626527723223
241.05569458007812      0.02424175533920595
242.06243896484375      0.019046909708987907
243.82876586914062      0.009096411804939437
251.06881713867188      0.0403392234184021
252.08291625976562      0.01922905455210128
255.06434631347656      0.041600202905403894
257.042724609375        0.08158420173895624
258.06024169921875      0.012346962662828784
259.0581970214844       0.009806515204147265
267.0695495605469       0.015774173806887982
271.1033630371094       0.021993023297797346
279.07080078125         0.016695535014685417
281.0881042480469       0.010449286624520035
283.0699157714844       0.0411437312610592
283.1128234863281       0.009751206711718257
285.08526611328125      0.020635027890211828
287.0633850097656       0.017155062860711418
289.0763244628906       0.019944797195051538
295.0679016113281       0.021588628784148658
302.48382568359375      0.009882232117405314
311.0534362792969       0.17359267406232137
312.0708923339844       0.027357845834550202
313.0791015625          0.01712578952142161
329.0653076171875       0.172365243412235
330.0816955566406       0.026869688419294546
341.0780029296875       0.01794819667403728
357.1033020019531       0.01198592139937904
359.0907897949219       0.026785529701466852
391.13037109375         0.015586045086943444
419.1097106933594       0.05666857155876832
420.1230773925781       0.014380832465752707
435.106201171875        0.10050407150213475
436.12701416015625      0.028889818394786333
437.1195983886719       0.04349669035764753
438.1393737792969       0.012928026561870788
444.0245666503906       0.012233690979524854
447.1020202636719       0.06306538934922062
448.1219177246094       0.01916985272943219
453.1242370605469       0.021083478569072132
464.1099853515625       0.0582576326470238
465.1187438964844       0.1500629739057565
466.13958740234375      0.0342221885510513
481.2622375488281       0.043989900116732115
482.1242980957031       0.046843089023308276
482.2764892578125       0.015157552417350662
483.1260681152344       0.13397167964968135
484.15069580078125      0.034493268066908556


