CHARGE: 1
PRECURSORMZ: 179.033884672
COMPOUNDNAME: challenge72
FORMULA: C9H6O4
SMILES: O=C1C=CC2=CC=C(O)C(O)=C2O1
INCHIKEY: ATEFPOUAMCWAQS-UHFFFAOYSA-N
PRECURSORTYPE: [M+H]+
IONMODE: positive
PARENTMASS: 178.026608672
NUM PEAKS: 39
55.06269454956055       0.004737345006111169
55.93623352050781       0.007686627290432692
56.96620559692383       0.00908215086467344
61.01231384277344       0.004030429181321012
77.04143524169922       0.005065467525530171
79.05563354492188       0.0048724007560146665
84.96147918701172       0.0055110707476895586
88.02493286132812       0.004809439948002473
89.0411148071289        0.012748620182791319
95.05181884765625       0.005167057610478003
96.93891143798828       0.004378226313479125
97.99333953857422       0.007908096769236716
105.03668212890625      0.018182063872142308
107.0520248413086       0.006620467094789394
111.97108459472656      0.007779985736238441
113.9660873413086       0.010341419343452788
116.97528839111328      0.014216719233298158
117.0370864868164       0.013151783405121036
121.06796264648438      0.0055020355640840735
122.35604858398438      0.004087418283451962
123.04766082763672      0.05744422789524588
133.0076904296875       0.012120822778940776
133.0321807861328       0.16708520281867156
134.03221130371094      0.02022899813880677
135.04383850097656      0.04349005103450214
136.05018615722656      0.0044812770523223935
139.98765563964844      0.004785153342624863
146.5010528564453       0.007409345307866284
150.03561401367188      0.026602110022003994
151.040771484375        0.006326818509493512
155.9790496826172       0.0182500290618091
161.02740478515625      0.012937664111872206
178.03118896484375      0.016468199638578096
178.98471069335938      0.03145131717508879
178.9999542236328       0.052137991038116935
179.0334014892578       1.0
179.07919311523438      0.017801718355438628
180.03675842285156      0.09093198037175967
181.04251098632812      0.006725357796910327


