CHARGE: 1
PRECURSORMZ: 289.070664104
COMPOUNDNAME: challenge40
FORMULA: C15H12O6
SMILES: O=C1C[C@@H](C2=CC=C(O)C(O)=C2)OC3=C(O)C(O)=CC=C13
INCHIKEY: ZPVNWCMRCGXRJD-ZDUSSCGKSA-N
PRECURSORTYPE: [M+H]+
IONMODE: positive
PARENTMASS: 288.063388104
NUM PEAKS: 27
89.04066467285156       0.023018993845687223
97.03143310546875       0.010382143491682906
107.01460266113281      0.022960013259674533
117.03668975830078      0.05662672120536909
125.0256118774414       0.025414183626792323
135.04396057128906      0.11013698524907671
145.02793884277344      0.11256198668630549
153.01805114746094      0.48122904867348737
154.0257110595703       0.03610570842493602
163.01048278808594      0.027028391339556698
163.0386199951172       0.6095600494010225
164.04217529296875      0.05697530494030049
169.06910705566406      0.012551081248277803
179.0329132080078       0.06664798475744534
197.06118774414062      0.04987900949661309
215.07261657714844      0.015551616151378848
225.05557250976562      0.06188986540600226
237.9081268310547       0.014271526961420814
243.07215881347656      0.015289501551711491
253.0567626953125       0.041786686627626905
265.9081726074219       0.011647198308332161
271.05975341796875      0.09917801044914887
272.0649719238281       0.01897784102961088
274.05145263671875      0.02400231697387019
289.0699462890625       1.0
290.07293701171875      0.15833041344611778
291.0820007324219       0.012265504817937804


