CHARGE: 1
PRECURSORMZ: 801.4994829840001
COMPOUNDNAME: challenge164
FORMULA: C42H72O14
SMILES: C[C@]12[C@](CC=C3[C@@]2([H])CC[C@H](O[C@]4([H])O[C@@H]([C@@H](O)[C@H](O)[C@H]4O)CO)C3(C)C)([H])[C@]5([C@@](C)([C@]([C@H](C)CC[C@H](C(C)(O)C)O[C@@H]6O[C@@H]([C@@H](O)[C@H](O)[C@H]6O)CO)([H])CC5)C[C@H]1O)C
INCHIKEY: WVXIMWMLKSCVTD-JLRHFDOOSA-N
PRECURSORTYPE: [M+H]+
IONMODE: positive
PARENTMASS: 800.4922069840001
NUM PEAKS: 71
67.05610656738281       0.09215416525593731
69.03561401367188       0.08705324346251418
69.07182312011719       0.1470931647547761
70.06707763671875       0.11459219149243455
70.9267349243164        0.035943716564461596
71.05054473876953       0.08400076019680192
72.08259582519531       0.05418931662328322
81.07209014892578       0.22497297224173132
83.08712005615234       0.0724600389380092
84.08244323730469       0.08576807841062377
85.0307846069336        0.3807081303981144
86.09881591796875       0.06918554977234805
93.07183074951172       0.10518585208491708
95.08560943603516       0.38561070458306357
97.0296630859375        0.07759059231092688
97.10362243652344       0.045596546089859046
105.07258605957031      0.13174344291114917
107.08856964111328      0.21693062493337786
109.10115051269531      0.3745865670506982
119.0884017944336       0.27099162155151046
121.10152435302734      0.2610452436719472
123.12037658691406      0.17894981360836199
127.04148864746094      0.08037682193896155
127.1117935180664       0.22227533203339556
129.10470581054688      0.05222201460544859
131.08717346191406      0.08873008554312109
133.1013946533203       0.21671458449276185
135.12063598632812      0.23523517500371707
137.1360626220703       0.10308489872622882
145.0535125732422       0.11675690167632852
145.10507202148438      0.1718196805419806
147.12046813964844      0.20061089748190603
149.13670349121094      0.13931475379281086
157.10498046875         0.07524340326667926
159.12106323242188      0.17617584370383815
160.1204833984375       0.05767149693510044
161.13702392578125      0.1956587990243327
163.06475830078125      0.06531776749276222
163.15122985839844      0.12152989543755408
171.11924743652344      0.07313410452787444
173.1371612548828       0.17304065819089195
175.1532745361328       0.16980208704021652
179.14678955078125      0.07166703993845275
185.13604736328125      0.10271290301609866
187.1474151611328       0.201835664215223
189.16355895996094      0.2808469674610968
191.1499481201172       0.05102466784760841
191.18553161621094      0.11452920970722089
201.1691131591797       0.1715673306520394
203.1787872314453       0.18127214657205604
207.17628479003906      0.06367145729063053
215.18556213378906      0.0876463056301786
217.2006378173828       0.04800597710841879
220.266845703125        0.054208152443696395
227.18173217773438      0.05026492510952959
233.19615173339844      0.05582642811843839
241.20159912109375      0.05148518251925638
289.95526123046875      0.038808886755728314
325.12066650390625      0.08958581580991397
405.3531799316406       0.19771786890870235
406.3567810058594       0.05082296564684556
423.36090087890625      1.0
424.35931396484375      0.22291355789514294
441.3716125488281       0.9234695136531671
442.3748474121094       0.32244231479112
459.3814697265625       0.5677748204130565
460.3848571777344       0.228662569695667
477.40765380859375      0.07909827212740743
585.435302734375        0.07447425044708064
603.4228515625          0.2544603316682656
604.4479370117188       0.11619887288204274


