CHARGE: 1
PRECURSORMZ: 407.0972727759999
COMPOUNDNAME: challenge175
FORMULA: C19H18O10
SMILES: OC1=C(C(C2=C3)=O)C(OC2=CC=C3O)=CC(O)=C1[C@@H]([C@@H]([C@H]4O)O)O[C@@H]([C@H]4O)CO
INCHIKEY: KRCBALDMBZQTIQ-ZJKJAXBQSA-N
PRECURSORTYPE: [M+H]+
IONMODE: positive
PARENTMASS: 406.0899967759999
NUM PEAKS: 30
113.23627471923828      0.03132330566948266
207.95359802246094      0.042162477503609096
241.04852294921875      0.24908101066702779
242.05831909179688      0.04447901508944439
245.04881286621094      0.0632931293133333
255.069091796875        0.06244327291899888
257.04351806640625      1.0
258.0469055175781       0.18389219522945796
269.0421447753906       0.1982185629603525
270.0552062988281       0.047481347014868794
279.18597412109375      0.03340522671486289
281.0530700683594       0.047388558389179984
283.0619201660156       0.3018878079757222
284.0737609863281       0.04725595419075998
287.0539245605469       0.8873417082825934
288.0654296875          0.0957784169547233
297.0831604003906       0.06859524254272746
307.0667724609375       0.06461841559003811
311.05389404296875      0.4488430632947265
312.0677185058594       0.09646407649243488
323.0533447265625       0.18136873676163864
335.06787109375         0.12049746206462751
341.064208984375        0.20135011678254292
342.076416015625        0.038560800091135876
353.0635070800781       0.20795846428995324
354.0826721191406       0.05347356415902713
371.0738220214844       0.19875455156496974
389.0840759277344       0.3300065646063406
390.0966491699219       0.07672506207749007
407.09381103515625      0.22306560449540896


