CHARGE: 1
PRECURSORMZ: 503.3367151919999
COMPOUNDNAME: challenge36
FORMULA: C30H46O6
SMILES: C[C@@]12C([C@@]3([H])[C@@](CC2)(CC[C@H]([C@]3(O)C)C)C(O)=O)=CC[C@@]4([H])[C@]1(CC[C@]5([H])[C@@]4(CC[C@@H]([C@]5(C)C(O)=O)O)C)C
INCHIKEY: UIEGOKVPCRANSU-XUFMHOFVSA-N
PRECURSORTYPE: [M+H]+
IONMODE: positive
PARENTMASS: 502.3294391919999
NUM PEAKS: 48
56.12752914428711       0.040962206052395485
81.07164764404297       0.0648925082419849
93.07222747802734       0.046987920843672745
95.07540893554688       0.029116671179964554
95.08784484863281       0.11082161402254066
105.07244110107422      0.07808903137541626
107.07279968261719      0.021933148182394255
107.08806610107422      0.09193157190645568
109.1033935546875       0.05699110017706467
119.08551025390625      0.12480318212287048
121.1024398803711       0.04431177535522581
131.087158203125        0.04548296775480416
133.10467529296875      0.07490979775776337
135.1198272705078       0.038413711240741576
143.08934020996094      0.029288889448091587
145.10487365722656      0.08836415861176726
146.1064910888672       0.025608392520130877
147.11614990234375      0.11271465751672889
159.12008666992188      0.06320754661495936
161.1354522705078       0.04664488114720834
173.13661193847656      0.07568313762732667
175.1516876220703       0.06792313596036118
185.13711547851562      0.05751416941679565
187.1466827392578       0.12044187020757921
189.1683807373047       0.03822162213891502
199.1538543701172       0.0757723148202139
201.16439819335938      0.11552427997424941
213.1686553955078       0.03187413795030124
221.15853881835938      0.06667891404591515
222.1671142578125       0.02592304906222268
227.1804962158203       0.02339845018839903
245.1591339111328       0.02983920756627574
297.3020324707031       0.024996324630944425
421.3083190917969       0.24695138140523512
422.3160400390625       0.053151922774126344
429.11981201171875      0.04126527565089373
437.70428466796875      0.02615930403266177
439.33563232421875      0.10612585875189655
449.3131103515625       0.059910484834899
457.3459167480469       0.06968288102890757
467.31536865234375      0.33727816293680335
468.3309020996094       0.08814288028448648
485.34356689453125      0.09767864341608282
503.18463134765625      0.05421898759404618
503.3406677246094       0.05717161808912989
504.1736755371094       0.03789789926638394
504.3548583984375       0.03334967338314849
505.16192626953125      1.0


