CHARGE: 1
PRECURSORMZ: 377.15947910799997
COMPOUNDNAME: challenge101
FORMULA: C20H24O7
SMILES: C[C@@]1([C@@H]2O)[C@]([C@@]3([C@@H]4O)O)([H])[C@@]([C@](C5)([H])C4=C)(CO3)[C@@](OC5=O)([H])C[C@@]1([H])C(C)=CC2=O
INCHIKEY: WBBVXGHSWZIJST-RLQYZCPESA-N
PRECURSORTYPE: [M+H]+
IONMODE: positive
PARENTMASS: 376.152203108
NUM PEAKS: 34
61.96331787109375       0.01692829622157693
69.03500366210938       0.017742528807351977
73.53953552246094       0.018728390438769994
74.5058364868164        0.016447164163189875
86.10167694091797       0.01662428100293608
91.05682373046875       0.02538560431149641
106.91763305664062      0.020810852241802305
134.7801055908203       0.017881311690351436
159.0852508544922       0.021912278242356135
185.10061645507812      0.021895711963906998
192.09779357910156      0.019748044877314325
207.12144470214844      0.03226707003050884
210.10760498046875      0.023459566934569798
221.1385955810547       0.02618223822755665
222.10447692871094      0.018030998134259762
223.11859130859375      0.07084827248083087
224.12486267089844      0.020999687236894573
225.13385009765625      0.045034388712968505
235.1173553466797       0.03435164977907787
237.13536071777344      0.056630543536371834
249.13327026367188      0.02840992249698144
253.13116455078125      0.04783121896858227
265.131103515625        0.05135964420545467
267.144287109375        0.03461412754116422
281.1202697753906       0.019797604802873497
283.1378173828125       0.04325878549189678
295.13665771484375      0.0431695059415798
313.1560974121094       0.053431588308101005
341.1421813964844       0.03552920005852184
359.14788818359375      1.0
360.152099609375        0.21849724935296164
361.15203857421875      0.019433832651255405
377.1587829589844       0.09181801865608533
378.1751708984375       0.02553429266285221


