CHARGE: 1
PRECURSORMZ: 199.0713328
COMPOUNDNAME: challenge211
FORMULA: C8H10N2O4
SMILES: OC([C@@H](N)CN1C=CC(C(O)=C1)=O)=O
INCHIKEY: WZNJWVWKTVETCG-YFKPBYRVSA-N
PRECURSORTYPE: [M+H]+
IONMODE: positive
PARENTMASS: 198.0640568
NUM PEAKS: 70
55.93490219116211       0.013692601805747774
61.01115417480469       0.03989688565252082
62.018863677978516      0.006536301028684323
63.00688171386719       0.01761785977277209
64.0148696899414        0.005790209125901042
67.24147033691406       0.0033757134446652038
70.0289077758789        0.023084082509279732
71.92959594726562       0.011366983592949777
72.9373550415039        0.019156313147709783
74.0967025756836        0.05427036423062668
79.02133178710938       0.011037908888196345
81.01722717285156       0.007876049782533381
83.08550262451172       0.004216691173550618
84.96064758300781       0.020641521748830105
84.97000122070312       0.004375192977090291
88.03961181640625       0.1562551493840595
88.05191040039062       0.008611422122655418
89.04225158691406       0.006536761495593383
89.90283203125          0.004565737126054867
90.94795227050781       0.015183049833827521
100.0759506225586       0.013611345666426723
101.95003509521484      0.03945520115747883
102.94791412353516      0.006708220561584694
105.91709899902344      0.00643201396604248
107.00067138671875      0.006685371952848416
107.91256713867188      0.013543010237489023
112.02069854736328      0.008812437101914098
112.03926849365234      1.0
112.06746673583984      0.00846983367432431
112.07597351074219      0.005087110033293834
113.04288482666016      0.051064294952610834
117.91699981689453      0.004725004294243964
118.92477416992188      0.013831850921708366
119.91262817382812      0.007907008492860586
119.96096801757812      0.00758337380568524
120.921142578125        0.04604752179687201
123.95044708251953      0.008376246115281843
132.0475311279297       0.0036448739604092533
133.9484100341797       0.007101583668105108
134.92013549804688      0.005833966409212679
134.9560546875          0.0063557284622518485
135.94412231445312      0.004801708363792201
135.95999145507812      0.005394241907393477
136.95269775390625      0.011544171081253116
137.9234161376953       0.010627367646850733
137.99989318847656      0.007399244544705441
138.93177795410156      0.01059948822539844
149.94383239746094      0.004623226843120035
150.95054626464844      0.03100669516924442
151.95394897460938      0.0069185581012848755
152.031005859375        0.007499462738086979
152.94955444335938      0.018119723236440087
153.95773315429688      0.026702022275807515
154.96810913085938      0.00457153330342031
162.9730987548828       0.012676364264404353
168.95986938476562      0.008255829338115004
169.9559783935547       0.010757529562029052
170.95889282226562      0.00518128153391507
176.96827697753906      0.021232106888888786
179.0807342529297       0.009337671601440755
179.96392822265625      0.010152418986637733
180.94349670410156      0.007730063496327363
180.9827423095703       0.01166767517091961
197.0891876220703       0.003976556566083743
197.9783172607422       0.016782696720164726
199.07093811035156      0.6368725682354724
199.1797637939453       0.0286275656199847
200.07406616210938      0.06977590850540169
200.12278747558594      0.0072859763714307494
201.07501220703125      0.0036744122662778736


