CHARGE: 1
PRECURSORMZ: 295.18048932399995
COMPOUNDNAME: challenge8
FORMULA: C19H22N2O
SMILES: O[C@@H](C1=CC=NC2=CC=CC=C12)[C@]3([H])[N@@]4C[C@H](C=C)[C@@H](CC4)C3
INCHIKEY: KMPWYEUPVWOPIM-QAMTZSDWSA-N
PRECURSORTYPE: [M+H]+
IONMODE: positive
PARENTMASS: 294.17321332399996
NUM PEAKS: 29
64.73780059814453       0.006420059657408455
67.05579376220703       0.014606825811834213
79.05715942382812       0.02989449010331184
80.05126953125          0.006937059017242945
81.06079864501953       0.014595379546026072
81.07244873046875       0.06193104924089679
85.279052734375         0.006004512400759698
110.09858703613281      0.007535152925249947
130.0689239501953       0.029363233407311735
134.0987548828125       0.01224240249275344
142.06666564941406      0.010438286018575077
143.07672119140625      0.013128050225673803
144.0829315185547       0.009139070185287623
154.06741333007812      0.014004133489691135
156.08538818359375      0.018109403492875455
167.07623291015625      0.009349390415215247
168.08673095703125      0.024705124895282
194.1039276123047       0.00682692376548078
223.128173828125        0.00971524878825648
234.13134765625         0.008132863934813323
242.3594970703125       0.008087380395023087
277.1694641113281       0.07522176082854817
278.1783447265625       0.01586102673815143
295.0763854980469       0.032068687731849004
295.10711669921875      0.038005973483095576
295.1797790527344       1.0
295.2741394042969       0.014747485407834767
296.1828308105469       0.21194565489113049
297.1915588378906       0.015166813695794019


