CHARGE: 1
PRECURSORMZ: 371.14891442399994
COMPOUNDNAME: challenge194
FORMULA: C21H22O6
SMILES: O=C1C2=C(O)C=CC(O)=C2C(C=C1[C@@H](C/C=C(C)/C)OC(/C=C(C)/C)=O)=O
INCHIKEY: BATBOVZTQBLKIL-QGZVFWFLSA-N
PRECURSORTYPE: [M+H]+
IONMODE: positive
PARENTMASS: 370.14163842399995
NUM PEAKS: 46
52.41364288330078       0.03230445433880973
71.31866455078125       0.037262126693187105
119.99586486816406      0.031790858399939205
129.07249450683594      0.04368275217271687
133.38731384277344      0.03262857188720159
136.0550537109375       0.08844466856365392
137.0591583251953       0.9245794158189555
138.06704711914062      0.10344330820272243
143.0888214111328       0.04485996219537668
145.0680694580078       0.058914333937215735
146.07411193847656      0.03374349129775385
149.0595245361328       0.2170194766298323
151.07492065429688      0.8659255087079355
152.08082580566406      0.07748408611379323
157.0675506591797       0.06302509525574379
158.07460021972656      0.08708676496823725
159.08277893066406      0.05918446311359491
160.05506896972656      0.04277026772695575
172.08811950683594      0.38175679794403644
173.0610809326172       0.19534904890553426
173.0958251953125       0.049574691637976155
174.0672149658203       0.24236003420103838
175.0790252685547       0.07241126819774832
187.07907104492188      0.050688953853997
188.0828399658203       0.6295401919094388
189.0902862548828       0.6225388541026616
190.0967254638672       0.08193187710708631
201.09481811523438      0.1306674170494777
203.1061248779297       0.616349465852604
204.11395263671875      0.0834162477892865
247.09600830078125      1.0
248.10008239746094      0.16045257806175695
265.12994384765625      0.04137503103736106
279.1115417480469       0.04395128757298605
280.8203125 0.04565374524432448
293.1231689453125       0.08330315318253341
294.1324157714844       0.1108909287191191
310.1221008300781       0.04078171136961017
325.1411437988281       0.2962085856960334
326.1557922363281       0.09642732797479137
343.1525573730469       0.3520725591528416
344.1656188964844       0.06852262593142562
347.8265075683594       0.04689948446486104
353.14697265625         0.05758668033936078
371.1479187011719       0.8034840275949062
372.1490783691406       0.19637331991869125


