CHARGE: 1
PRECURSORMZ: 249.1485205
COMPOUNDNAME: challenge82
FORMULA: C15H20O3
SMILES: C/C1=C\CC[C@@](C)(O2)[C@H]2[C@@H](OC(C3=C)=O)[C@H]3CC1
INCHIKEY: KTEXNACQROZXEV-PVLRGYAZSA-N
PRECURSORTYPE: [M+H]+
IONMODE: positive
PARENTMASS: 248.1412445
NUM PEAKS: 151
55.05600357055664       0.03631386485424399
57.07179641723633       0.02403341745031645
59.050994873046875      0.061245241324948074
61.76899337768555       0.011729481517138384
67.05580139160156       0.027859581061958096
69.0350341796875        0.031515564629431114
69.0716323852539        0.030067305671343615
71.05067443847656       0.020047796296088292
79.05670166015625       0.041081144353067145
81.07215118408203       0.11824896875499583
83.08738708496094       0.013347099502737499
85.06709289550781       0.017330031617050944
87.63018035888672       0.012353941016509306
91.05460357666016       0.09204666571167483
93.07244873046875       0.0665241115691003
95.05045318603516       0.028103039547432346
95.08830261230469       0.07613426179875224
97.06563568115234       0.030602743164025385
98.98652648925781       0.015425771833552001
103.0566635131836       0.025179306672084782
105.03382873535156      0.08736519267114036
105.07269287109375      0.15504268959652312
106.07548522949219      0.019223125333599624
107.0884780883789       0.08313828638153442
109.06634521484375      0.028195253061038594
109.1039810180664       0.0271371537199368
111.08306121826172      0.015231973436122663
117.0698471069336       0.0696318819996298
119.08544158935547      0.13416120918583152
121.06759643554688      0.032748003191324204
121.1042709350586       0.04532023005814731
123.08145141601562      0.019537349925367542
124.0870590209961       0.3621514427274936
125.09326934814453      0.052386262434832194
128.06443786621094      0.027205833025474125
129.0700225830078       0.07556794061653596
130.07821655273438      0.0360718873241452
131.08538818359375      0.09313507174671032
132.09210205078125      0.013493264509169845
133.067626953125        0.019935318216151167
133.10496520996094      0.07047384359695673
135.08401489257812      0.02399691045782216
135.11953735351562      0.018799837754607
137.06195068359375      0.022427280475099717
137.09902954101562      0.020366502220356006
141.0726318359375       0.02494326258008122
142.0805206298828       0.026612027619471554
143.08534240722656      0.17807792148643914
143.98072814941406      0.014577975368211666
144.09323120117188      0.024040980900984017
145.07601928710938      0.02304798108854605
145.10073852539062      0.34262475760414807
146.10997009277344      0.04199649498252319
147.0602569580078       0.015578977388388664
147.0847625732422       0.049324593952809144
147.1201629638672       0.03960989933273151
148.08860778808594      0.021543462655229127
149.06346130371094      0.023022482691285966
149.09780883789062      0.020069236490955863
151.0779571533203       0.020848339225868852
153.07272338867188      0.01802801478085784
155.08949279785156      0.04925508040779895
156.09719848632812      0.025056247935317407
157.07183837890625      0.02739684020668444
157.1012420654297       0.14145905916174387
158.10789489746094      0.01943295819836124
159.0872039794922       0.025038248076719796
159.1162109375          0.1144484429812178
160.12344360351562      0.020405742729509232
161.06797790527344      0.027189342972032023
161.10061645507812      0.06684432008607852
161.1365966796875       0.0721355813107586
163.0778350830078       0.020649523370860616
165.07456970214844      0.03933294865677732
166.07855224609375      0.015743334585285564
167.08920288085938      0.042237438728837146
167.92132568359375      0.05812231033500672
170.113037109375        0.02712914550182692
171.08433532714844      0.03871249567060968
171.121337890625        0.059071828720625344
173.09591674804688      0.12141170282480121
175.07589721679688      0.095792713484141
175.11532592773438      0.02252359786991688
175.15293884277344      0.04138601921195326
178.08297729492188      0.035637729388447746
179.09034729003906      0.06835175955962465
180.09852600097656      0.04258959356891474
181.10545349121094      0.034402886678217864
183.93557739257812      0.017176055532672336
185.0983123779297       0.0337864702571077
185.13226318359375      0.39703671215289676
185.92820739746094      0.11474287421972885
186.14093017578125      0.04972664929576533
187.1166229248047       0.017437257834946332
187.15162658691406      0.02741730431732727
189.09519958496094      0.042849443537749284
189.13206481933594      0.08375352717410789
190.1340789794922       0.016651702365897376
191.0856475830078       0.025603275827130886
191.11279296875         0.05580399971042514
192.09906005859375      0.044230222860319524
193.10028076171875      0.09562517319484619
194.11215209960938      0.022794946880246334
195.08628845214844      0.02012748539893399
195.11709594726562      0.07233512081441622
196.1240234375          0.016409921975962208
203.1065216064453       0.02784383869864874
203.142578125           0.24563724009617824
203.89442443847656      0.025492389293392724
203.94371032714844      0.10721267773195492
204.15243530273438      0.03920730305639955
204.93588256835938      0.037914546816884526
205.10678100585938      0.052212389618818245
206.10658264160156      0.10993088477428624
207.12147521972656      0.04228117980367686
208.94332885742188      0.12483545047123615
209.09947204589844      0.029070718869587148
213.1274871826172       0.15384075006043066
214.13427734375         0.02774953598013781
215.08946228027344      0.020553434370135445
216.091796875           0.06479109085711235
217.0989227294922       0.031953458611643955
218.11476135253906      0.01843196699685176
219.07821655273438      0.07269299271923871
220.09014892578125      0.019763660822829578
221.09886169433594      0.06910083448181102
221.13580322265625      0.1316340742367156
222.14309692382812      0.02799553324625572
223.15234375            0.028397011593611073
225.0427703857422       0.08331102924783007
226.04248046875         0.015994861392578115
226.903076171875        0.02914964225118757
226.95339965820312      0.19294730968492502
227.02967834472656      0.021895571816488317
227.9551544189453       0.046738417928838136
229.00872802734375      0.026328059234522246
231.13839721679688      0.7858798559757434
232.14047241210938      0.12810341892203989
233.09693908691406      0.022359423388293574
233.14193725585938      0.028407375877091013
234.10231018066406      0.18072735065315132
235.1166229248047       0.04532694244030365
236.12628173828125      0.03893673058598288
248.12237548828125      0.021163965436117125
249.04428100585938      0.02938071937272731
249.13961791992188      1.0
249.2291259765625       0.0806962005839811
249.9760284423828       0.017098377499910375
250.14064025878906      0.22752552128475226
250.23143005371094      0.01701198683357585
251.1430206298828       0.35973848559118893


