CHARGE: 1
PRECURSORMZ: 449.10783745999987
COMPOUNDNAME: challenge249
FORMULA: C21H20O11
SMILES: O[C@@H]1[C@@H](O)[C@H](C2=C(O)C=C(O)C3=C2OC(C4=CC=C(O)C(O)=C4)=CC3=O)O[C@H](CO)[C@H]1O
INCHIKEY: PLAPMLGJVGLZOV-VPRICQMDSA-N
PRECURSORTYPE: [M+H]+
IONMODE: positive
PARENTMASS: 448.1005614599999
NUM PEAKS: 36
75.57062530517578       0.0135240049473792
79.01978302001953       0.015882139427599973
97.59783172607422       0.01406752859623643
114.8716812133789       0.013549501071072624
137.026611328125        0.04252139404325107
165.02267456054688      0.013734893233285705
217.05470275878906      0.018631948190881348
229.0556640625          0.01745938298389183
271.0665283203125       0.015842419029800648
272.0746765136719       0.040997353463888185
287.05963134765625      0.018686475691484045
299.05450439453125      0.371083666776426
300.0601501464844       0.2283797005431129
301.0765686035156       0.03727350109244875
311.06463623046875      0.056429397926968855
312.0633544921875       0.02373102746164792
313.0704040527344       0.09023079419235722
325.0802001953125       0.031948739831333166
327.06561279296875      0.02319479443515083
329.0644836425781       0.46779230047804127
330.0687561035156       0.07612927204056393
339.08551025390625      0.08965946511660954
341.07635498046875      0.021616802484702286
343.0880126953125       0.021154329348798625
353.06524658203125      0.09677940001558191
359.08551025390625      0.045410540017336104
367.0914611816406       0.04161911396991809
383.0889892578125       0.05896612872936867
395.0881652832031       0.05369308131307489
413.08648681640625      0.14392594268110787
414.10247802734375      0.03392333283353619
431.0975646972656       0.09845011436534583
448.9742126464844       0.03609841890766885
449.1064147949219       1.0
450.10760498046875      0.2107218399835753
451.12371826171875      0.027578217486970976


