CHARGE: 1
PRECURSORMZ: 307.081228788
COMPOUNDNAME: challenge204
FORMULA: C15H14O7
SMILES: O[C@@H]1[C@@H](C2=CC(O)=C(O)C(O)=C2)OC3=CC(O)=CC(O)=C3C1
INCHIKEY: XMOCLSLCDHWDHP-SWLSCSKDSA-N
PRECURSORTYPE: [M+H]+
IONMODE: positive
PARENTMASS: 306.073952788
NUM PEAKS: 53
57.07108688354492       0.0032981549190493173
57.93616485595703       0.0035743334937241543
76.51638793945312       0.0033572857525413094
76.6434097290039        0.006135968355997868
76.76793670654297       0.011849156501447997
76.77699279785156       0.003657122959316949
76.89584350585938       0.0054069040984821536
77.02005004882812       0.007219972515927006
89.06127166748047       0.003043171483353117
107.0522232055664       0.008957037038275696
195.4010009765625       0.003007481626745736
222.0947723388672       0.0059674313667830116
234.098876953125        0.003285677186414346
244.95245361328125      0.002882738360054719
248.07557678222656      0.006858682586734666
249.0839080810547       0.008316233953850921
250.08587646484375      0.07471193852363364
251.0935821533203       0.048186190481707566
252.1064453125          0.005894091590195859
255.8799591064453       0.014321538727963233
257.88128662109375      0.004001118280307415
262.0944519042969       0.013859605773317067
263.097900390625        0.005131827097152286
264.0719909667969       0.007622572145411668
265.0763244628906       0.003994973544622012
266.08935546875         0.008904065404159786
276.07177734375         0.008185704277746815
277.0812683105469       0.010052815575559187
278.080322265625        0.12299452997028998
278.90325927734375      0.0041708954143553625
279.0875549316406       0.14793004467850848
280.0950622558594       0.07799552104103816
282.09320068359375      0.0034962099680874623
283.8858337402344       0.012634286689743675
285.8790283203125       0.005292781846456476
290.6473388671875       0.009350347712349523
292.10302734375         0.013390806764734198
294.0837097167969       0.005070120793578029
305.076416015625        0.007507231210803585
305.1635437011719       0.0037484823949226124
306.0854797363281       0.14423141582593368
306.1667175292969       0.04288052055371442
306.65972900390625      0.018298382736174637
306.92474365234375      0.011597796220266982
306.9673156738281       0.02589727548709082
307.0057678222656       0.03334265902340802
307.0831298828125       1.0
307.1797790527344       0.013747926485304204
307.927490234375        0.004829540161089159
307.973388671875        0.010393852605235052
308.08929443359375      0.45628631487467297
308.1889953613281       0.005172242381475822
309.0967712402344       0.14163897003651824


