CHARGE: 1
PRECURSORMZ: 515.3731007
COMPOUNDNAME: challenge106
FORMULA: C32H50O5
SMILES: CC1(C)[C@@H](OC(C)=O)CC[C@]2(C)C3=C([C@@]4(C[C@@H](O)[C@@H]([C@]4(CC3)C)[C@H](C(O)=O)CC/C=C(C)\C)C)CC[C@@]12[H]
INCHIKEY: SRDNLMOBFKJOSD-KOCSMGCBSA-N
PRECURSORTYPE: [M+H]+
IONMODE: positive
PARENTMASS: 514.3658247
NUM PEAKS: 51
55.05596923828125       0.015984074534113456
57.05462646484375       0.04334860509925294
57.060848236083984      0.01653234582570766
57.071781158447266      0.08968658115022288
57.16646957397461       0.010973223889829178
57.239585876464844      0.009145524613421612
58.06821823120117       0.008657523138352458
58.075069427490234      0.021079967932202518
67.05561828613281       0.011331744474671007
69.07125854492188       0.010561403337937557
70.06745147705078       0.07769289512919139
71.0877456665039        0.05008408515473302
72.09078216552734       0.009546499707514785
81.07191467285156       0.018830090746014563
83.08802795410156       0.012640617307165262
85.10357666015625       0.02754605621138322
88.06476593017578       0.01710233247183722
88.07837677001953       0.1062098017478555
89.0813980102539        0.01730905330590843
95.08794403076172       0.018812181077284048
102.09428405761719      0.0692335032169029
103.09708404541016      0.016238627801614735
121.10443115234375      0.008007608265149057
123.12029266357422      0.008977337875558055
184.06082153320312      0.008974217158889335
219.86801147460938      0.010183055306555961
228.23855590820312      0.011879085050025747
256.2630615234375       0.2426233508169861
257.2659912109375       0.28477786938336713
258.2688903808594       0.041417508068542684
274.28094482421875      0.012081169274384674
275.2819519042969       0.019318240891292648
283.2620544433594       0.21982255983825202
284.2005615234375       0.009817817407936238
284.2658386230469       0.2796547510078401
285.2682189941406       0.052650363773055806
437.35345458984375      0.031818379107066794
438.3687744140625       0.011184154331049122
473.1395568847656       0.02467353597072854
497.3735046386719       0.011699883818372763
498.1910705566406       0.012138202968142747
499.1742248535156       0.12652353428498486
513.2557373046875       0.022572534009009517
513.5061645507812       1.0
514.1869506835938       0.017295116322395523
514.508544921875        0.2807388405941673
515.1658935546875       0.15599893606982246
515.5315551757812       0.0351602192909206
516.173828125           0.08613057983325736
517.2028198242188       0.04271472420625369
517.3612670898438       0.014434614608585092


