CHARGE: 1
PRECURSORMZ: 274.143769468
COMPOUNDNAME: challenge102
FORMULA: C16H19NO3
SMILES: O=C(NCC(C)C)/C=C/C=C/C1=CC=C(OCO2)C2=C1
INCHIKEY: WHAAPCGHVWVUEX-GGWOSOGESA-N
PRECURSORTYPE: [M+H]+
IONMODE: positive
PARENTMASS: 273.136493468
NUM PEAKS: 18
57.0716552734375        0.06439486208536158
76.33802032470703       0.01970977960264591
115.05411529541016      0.14505376900161504
117.07145690917969      0.025419369065792834
135.02281188964844      0.03553412570002584
135.04379272460938      0.7879587697892183
136.04954528808594      0.041425425844864444
137.49237060546875      0.022628605934837613
143.04945373535156      0.14570247270890585
145.06822204589844      0.0515764446673043
159.04727172851562      0.03434977864875049
171.04327392578125      0.10199032472281297
173.06439208984375      0.07046905614423776
201.05386352539062      0.8264926361831904
202.05813598632812      0.1069403566837917
274.0816955566406       0.04200702337482352
274.1427307128906       1.0
275.14508056640625      0.1734569827885835


