CHARGE: 1
PRECURSORMZ: 248.05851561999998
COMPOUNDNAME: challenge112
FORMULA: C12H10ClN3O
SMILES: O=C(NC1=CC=CC=C1)NC2=CC(Cl)=NC=C2
INCHIKEY: GPXLRLUVLMHHIK-UHFFFAOYSA-N
PRECURSORTYPE: [M+H]+
IONMODE: positive
PARENTMASS: 247.05123962
NUM PEAKS: 21
55.0961799621582        0.009052541908656416
78.6614990234375        0.008267332634507978
93.0478286743164        0.02226918847860439
94.06724548339844       0.021069209650607327
111.05872344970703      0.10200589430812351
128.99147033691406      0.03630817401074865
129.00149536132812      0.06943054298322172
129.0253143310547       1.0
130.0249786376953       0.05173716858465805
130.99822998046875      0.01157177010674478
131.0224609375          0.15855145896223005
135.84063720703125      0.009069701229771958
150.496337890625        0.010939111900705251
155.00540161132812      0.17502798239697176
156.9759979248047       0.010934289092622953
157.0028839111328       0.028987070754109657
188.14700317382812      0.009585737298884726
248.05850219726562      0.2517515723922146
249.06900024414062      0.038661997401125504
250.06329345703125      0.037583645939406295
266.32659912109375      0.008829422381528918


