CHARGE: 1
PRECURSORMZ: 245.117220372
COMPOUNDNAME: challenge86
FORMULA: C15H16O3
SMILES: C=C[C@@]1([C@]2([H])[C@](OC(C2=C)=O)([H])C3=C(OC=C3C)C1)C
INCHIKEY: VXZIFOKTSURLNL-YDHLFZDLSA-N
PRECURSORTYPE: [M+H]+
IONMODE: positive
PARENTMASS: 244.109944372
NUM PEAKS: 46
55.05023193359375       0.031354293712620836
91.05626678466797       0.04180965965536723
93.07294464111328       0.03397413202004797
95.05107879638672       0.06551607166378427
105.0728759765625       0.05506372215040214
117.0727310180664       0.03714253603613377
119.08831787109375      0.05103322796082456
124.09082794189453      0.3559144054159653
128.06488037109375      0.048686558030505894
129.0738525390625       0.11093958453954916
131.0886993408203       0.0630710180868735
141.0722198486328       0.05351559450203054
142.0808563232422       0.06069779823933634
143.0900115966797       0.200565645105436
145.0673370361328       0.050146226885715746
145.10569763183594      0.08436629933639836
153.0738983154297       0.04752728816828485
155.09054565429688      0.10055772871346906
156.09324645996094      0.2521254882451296
157.06979370117188      0.28121413919285004
157.10411071777344      0.09636670709358264
159.08468627929688      0.07676197166892662
160.09078979492188      0.060766951884566836
166.08139038085938      0.09336191634173939
167.08851623535156      0.04391986287878024
168.09771728515625      0.05183584909592967
171.08506774902344      0.11693370484068896
171.12228393554688      0.40010149724235355
172.09197998046875      0.04426015882157277
172.1234893798828       0.047352527462427144
173.10142517089844      0.10010625732805477
181.10740661621094      0.21864604797141335
183.1227569580078       0.05487360167944536
184.09266662597656      0.0689829633777927
185.0999755859375       0.05334796111157333
189.06002807617188      0.04043078572720869
199.11143493652344      0.9754440226734692
200.1227264404297       0.13135284582652598
201.13259887695312      0.05081154976602332
203.07464599609375      0.03832082808919525
217.12925720214844      0.12256160392294273
227.1062469482422       0.24675231461035804
228.1171417236328       0.03810254004067065
245.11679077148438      1.0
246.12232971191406      0.17533975351938827
246.24771118164062      0.07334661017832318


