CHARGE: 1
PRECURSORMZ: 303.04992866
COMPOUNDNAME: challenge60
FORMULA: C15H10O7
SMILES: O=C1C(O)=C(C2=CC=C(O)C=C2O)OC3=CC(O)=CC(O)=C13
INCHIKEY: YXOLAZRVSSWPPT-UHFFFAOYSA-N
PRECURSORTYPE: [M+H]+
IONMODE: positive
PARENTMASS: 302.04265266
NUM PEAKS: 43
56.477020263671875      0.004410485856465147
68.9988021850586        0.005888157123931776
85.1207046508789        0.004473987931079974
111.00994873046875      0.00926252622699273
121.031494140625        0.01363198539988694
137.02734375            0.03936818201897335
149.02561950683594      0.0071733904833435475
153.01815795898438      0.06032349875763041
154.0237579345703       0.005812558665272827
161.06097412109375      0.004807616013263154
162.8804931640625       0.011310097475354606
163.0414581298828       0.010454243413624874
165.0178985595703       0.029023195551881105
166.02780151367188      0.006782043408340421
172.8668975830078       0.009151730006101413
179.88609313964844      0.006394896637002725
180.89361572265625      0.008860434012583575
183.03125   0.0076532195565260416
190.87255859375         0.028606330157653834
201.05291748046875      0.02571733875636274
206.89170837402344      0.004779095933856592
208.8825225830078       0.06056935287280263
226.89266967773438      0.03378643217150867
229.0488739013672       0.05458164101913249
230.05780029296875      0.00639422159862691
237.91416931152344      0.009280867883899603
245.04830932617188      0.007684951031735194
247.06341552734375      0.011277074317716991
257.04364013671875      0.034030265843099296
258.052978515625        0.006169240534270872
273.0458679199219       0.007830389100902327
274.0541687011719       0.014645630265906632
280.8669738769531       0.06088127666097934
285.04693603515625      0.015042088012073367
301.04217529296875      0.01414315996180245
301.152587890625        0.018012802268637208
302.0409240722656       0.02512717769715811
302.939208984375        0.031190206548849533
302.97650146484375      0.03982389131697156
303.04925537109375      1.0
303.8934631347656       0.008004469001639824
304.0527648925781       0.1653027808254943
305.066162109375        0.014514176469251624


