CHARGE: 1
PRECURSORMZ: 495.07693125599985
COMPOUNDNAME: challenge47
FORMULA: C21H18O14
SMILES: O[C@H]([C@H]([C@@H]([C@@H](C(O)=O)O1)O)O)[C@@H]1OC2=C3C(C(C(O)=C(C4=CC=C(O)C(O)=C4)O3)=O)=C(O)C=C2O
INCHIKEY: KHVMAMXQPVHXTJ-ORYXKJSJSA-N
PRECURSORTYPE: [M+H]+
IONMODE: positive
PARENTMASS: 494.06965525599986
NUM PEAKS: 31
55.00524139404297       0.014797804703094629
80.2254867553711        0.005117943532150919
85.02837371826172       0.00831615127026712
98.16815185546875       0.006521393851598787
108.99163818359375      0.004673053534952054
113.02285766601562      0.007355352152610388
121.02810668945312      0.00878796366343561
123.04440307617188      0.004655434628211058
137.02223205566406      0.028441108057384572
153.01881408691406      0.006423561486437777
169.01316833496094      0.04520220936565186
175.0392608642578       0.007403329155400754
181.01364135742188      0.013721454634647752
199.0409698486328       0.0065266734216055
217.05059814453125      0.006142137285642029
227.03379821777344      0.005953637307036227
245.04656982421875      0.024338793474488463
263.05462646484375      0.005032938664971043
273.04071044921875      0.0215787692015346
289.03125   0.0066219997912974225
290.0413513183594       0.00989071840404528
301.0357360839844       0.012141648863638239
317.0262451171875       0.015148071009911869
318.0340881347656       0.023490783103299627
319.044189453125        1.0
320.04766845703125      0.16354026373369202
321.0492248535156       0.015410316689424077
468.7880859375          0.005184928123986989
495.0758056640625       0.4623712455003055
496.0787048339844       0.11546497983366473
497.0853576660156       0.015831464918901438


