CHARGE: 1
PRECURSORMZ: 479.15478765199987
COMPOUNDNAME: challenge178
FORMULA: C23H26O11
SMILES: O[C@H]([C@@H](O)[C@@H]1O)[C@@H](O[C@@H]1COC(/C=C/C2=CC(O)=C(O)C=C2)=O)OCCC3=CC(O)=C(O)C=C3
INCHIKEY: LFKQVVDFNHDYNK-FOXCETOMSA-N
PRECURSORTYPE: [M+H]+
IONMODE: positive
PARENTMASS: 478.1475116519999
NUM PEAKS: 22
60.502838134765625      0.012611935011309028
81.03562927246094       0.017897184746322594
89.04096221923828       0.015983408807585107
89.06169128417969       0.016488574690027343
91.89068603515625       0.012726748476160977
97.9390640258789        0.014038564111616615
117.03739929199219      0.04202942224672682
131.052001953125        0.014067128367886692
133.0890350341797       0.014627691848907757
135.04396057128906      0.0955900137397403
145.0328826904297       0.08180435515825556
163.01026916503906      0.06109293189781866
163.03857421875         1.0
164.04750061035156      0.0923255642954902
165.054931640625        0.021915247821111306
181.053466796875        0.028308863986593262
245.08511352539062      0.017790692822595926
263.0964660644531       0.02331789781238533
325.0902099609375       0.06887794398189487
326.10882568359375      0.015356790810182321
460.2940368652344       0.022754576143978366
481.2630920410156       0.10057646575715162


