CHARGE: 1
PRECURSORMZ: 271.06009942
COMPOUNDNAME: challenge52
FORMULA: C15H10O5
SMILES: O=C1C2=C(C=CC=C2)C(C3=CC(O)=C(CO)C(O)=C13)=O
INCHIKEY: AMIDUPFSOUCLQB-UHFFFAOYSA-N
PRECURSORTYPE: [M+H]+
IONMODE: positive
PARENTMASS: 270.05282342
NUM PEAKS: 58
55.93484115600586       0.008487061280157408
57.07005310058594       0.010425043950710053
65.03929138183594       0.006354471842226995
67.05482482910156       0.004802870953222763
67.76165008544922       0.005962827987942466
69.0701904296875        0.005725661106634901
72.9373550415039        0.009704645256146584
77.84053039550781       0.007386664719334403
81.07039642333984       0.008800788995328575
84.96011352539062       0.009797876955385821
89.98153686523438       0.005042479691460043
91.05447387695312       1.0
95.04830932617188       0.005369545320538854
95.08594512939453       0.009798785016689867
106.06556701660156      0.01664026683157458
113.96388244628906      0.011831717101848374
118.54327392578125      0.004867709787950719
119.0493392944336       0.012891197967680075
123.02574920654297      0.03841646596113878
133.0760040283203       0.016891144216966116
141.95849609375         0.006543814161521439
150.03582763671875      0.013682301247233738
153.01821899414062      0.04152278487335463
159.9681396484375       0.01367717456928847
163.0369415283203       0.005561823568982255
167.03359985351562      0.011751553884276341
181.10108947753906      0.00792955507439316
182.050537109375        0.018859747827711045
191.88058471679688      0.010142685749436975
203.0347137451172       0.005321161194590615
204.927734375           0.006949390445186217
207.87403869628906      0.01670942336885586
208.88250732421875      0.018131839642617477
209.8893280029297       0.00871048983188514
215.06918334960938      0.010008471845484614
220.882080078125        0.0072855489033768475
221.929443359375        0.017819216803233295
222.93800354003906      0.009077244798125349
225.88668823242188      0.013694552609461428
226.89266967773438      0.010130792725302361
230.13973999023438      0.006361381387919446
230.8922576904297       0.03156719165007091
243.06407165527344      0.007111902199761542
248.90431213378906      0.03351625769069559
249.9259033203125       0.03324987675341344
264.8930358886719       0.005497535136135899
269.067626953125        0.005274309846262099
269.1411437988281       0.007189612023003134
269.20428466796875      0.013060550722214138
271.05889892578125      0.6533191011577578
271.1596984863281       0.01179508381853759
271.9228820800781       0.0068719242647010915
272.0620422363281       0.10754707802431922
272.1320495605469       0.008821173546396097
272.14910888671875      0.006252448643636024
272.25390625            0.006559788710829846
273.1055603027344       0.4839739477347603
273.1671447753906       0.054455049200906054


