CHARGE: 1
PRECURSORMZ: 271.096484928
COMPOUNDNAME: challenge242
FORMULA: C16H14O4
SMILES: O=C1C=CC2=C(OC/C=C(C)/C)C3=C(OC=C3)C=C2O1
INCHIKEY: IGWDEVSBEKYORK-UHFFFAOYSA-N
PRECURSORTYPE: [M+H]+
IONMODE: positive
PARENTMASS: 270.089208928
NUM PEAKS: 18
50.757179260253906      0.010223790514821595
51.146209716796875      0.006762041261074041
69.07231140136719       0.04915391559067546
94.95135498046875       0.008337575305213866
113.0923843383789       0.008690965306294695
131.03199768066406      0.014076967989313509
131.05343627929688      0.04199805620023426
147.04876708984375      0.09385583483586897
148.05081176757812      0.010780998823107723
151.49473571777344      0.008073564826207403
159.04891967773438      0.048275981684319014
175.0446319580078       0.016038928556611376
202.92367553710938      0.009080950261499961
202.9724884033203       0.03318116858396506
202.99392700195312      0.056304794845569724
203.03334045410156      1.0
204.0373077392578       0.11015906252459463
205.04296875            0.00981339465492012


