CHARGE: 1
PRECURSORMZ: 447.092187396
COMPOUNDNAME: challenge223
FORMULA: C21H18O11
SMILES: O[C@H]([C@H]([C@@H]([C@@H](C(O)=O)O1)O)O)[C@@H]1OC2=C(O)C(O)=C3C(C=C(C4=CC=CC=C4)OC3=C2)=O
INCHIKEY: IKIIZLYTISPENI-ZFORQUDYSA-N
PRECURSORTYPE: [M+H]+
IONMODE: positive
PARENTMASS: 446.084911396
NUM PEAKS: 120
74.75823211669922       0.0026040248784859085
74.76860046386719       0.0025701194674868496
79.01773834228516       0.0011086264000829125
81.03327178955078       0.0025428917496952905
82.25984954833984       0.004072867503031652
82.27215576171875       0.003305724104798148
85.02806091308594       0.004224873816294016
95.52299499511719       0.002207410738418865
95.76297760009766       0.000960372781865944
103.03816986083984      0.001700578558366587
103.26319885253906      0.002099819466148496
103.27842712402344      0.0015481066656073707
107.01253509521484      0.0010921999621025967
107.76824188232422      0.0012680539262243293
107.78240966796875      0.0011595499572803118
109.02806091308594      0.0028615194046895166
112.2667465209961       0.00898665529760166
112.28684997558594      0.006404951729653678
133.0276641845703       0.0010469397672811175
135.04188537597656      0.0028038553641169034
137.02304077148438      0.026075212763139757
151.03878784179688      0.0032464308101794247
161.02357482910156      0.0016571796761586516
163.03965759277344      0.0013364893595851253
165.0182647705078       0.004908981376317074
171.03028869628906      0.001052916714905114
183.02926635742188      0.0014087497835119317
189.05343627929688      0.0025458199467742353
193.04934692382812      0.0015223903903245357
195.0289306640625       0.002258457773806341
199.0420379638672       0.0013029907594106621
202.74423217773438      0.0010804412921795502
205.04788208007812      0.0020555248872249836
213.05392456054688      0.0014911701501221038
217.04946899414062      0.02097848494665631
219.0278778076172       0.0020896681148417904
229.0487823486328       0.004782625257855364
231.0631103515625       0.0014776682533157713
233.04241943359375      0.003708403025605888
235.06033325195312      0.0025569457795484394
241.04888916015625      0.002444534744972025
243.02658081054688      0.015723936100069173
259.05987548828125      0.016593582299252327
261.0376892089844       0.014717211013172114
269.0426940917969       0.0181356766463552
270.04962158203125      0.006682756635871117
271.05841064453125      0.008154699285028998
272.0655517578125       0.0074587897326091
279.0517272949219       0.0018932577283023151
281.0415954589844       0.0034671297497166293
283.0577697753906       0.0048662281269253455
284.0656433105469       0.002075748622291226
286.0456848144531       0.0026105903354110885
287.05340576171875      0.015590571611796193
287.4066467285156       0.0010766177639755243
295.0585632324219       0.003124247541640816
296.06500244140625      0.0013829441213527873
297.0780944824219       0.0019426510150804383
298.89385986328125      0.0023714669144344626
299.0539855957031       0.3437654571661774
300.0614929199219       0.12055448976014362
301.07269287109375      0.007310926656439648
305.06427001953125      0.0018768220591619715
309.078125  0.005670533067911904
310.0687255859375       0.001457603732910604
311.05364990234375      0.05789521514222722
311.1383972167969       0.0019675124483856414
312.0571594238281       0.0018593157582536411
313.07025146484375      0.06391201578620932
315.0546875 0.002134462455973545
315.8489685058594       0.0010418890431791272
321.0739440917969       0.0017865038410633865
323.0537414550781       0.01484737731578474
324.0617370605469       0.012963347639991093
325.070556640625        0.022481178874807682
327.0479736328125       0.021475509613263517
328.0564880371094       0.004561882813049117
328.8816223144531       0.0027454533791278035
329.06439208984375      0.5028857900437529
337.072021484375        0.005407442082393171
338.0745544433594       0.0015879823522038708
339.0867614746094       0.09584294124655386
339.17034912109375      0.0012222646305572913
340.0526123046875       0.0016097366318822616
341.0643310546875       0.026463548837602387
343.08148193359375      0.0098565025715577
349.0680847167969       0.002482751930282723
351.0714111328125       0.0018504258769539146
352.05206298828125      0.0015076531632316993
353.0643310546875       0.12837386797973827
354.0701599121094       0.0016451278026576896
355.0765075683594       0.0033081768514368446
357.0624694824219       0.0032474815172653707
359.0752258300781       0.047100857421437936
359.16998291015625      0.0009181338269046808
365.0617980957031       0.012353057188227467
366.0697937011719       0.002178532379537171
367.0799865722656       0.04935944333471318
367.18707275390625      0.0015133636867816235
371.0747375488281       0.014753813933647044
377.0664978027344       0.0028006635762902314
383.0746154785156       0.09816407823135904
384.0792236328125       0.0022056109364062995
385.08978271484375      0.003348217053756614
394.89874267578125      0.0014306658369848708
395.07470703125         0.07178406828448981
401.0848083496094       0.008800116402844086
413.0854187011719       0.1841989400987518
419.0993347167969       0.007833867302138212
420.09869384765625      0.0017642399282333573
429.07763671875         0.0021613011854771966
431.0962219238281       0.13711678043764913
446.19635009765625      0.00292544564487075
446.58819580078125      0.0011604235357708715
447.09051513671875      0.0645945820167006
448.095703125           0.015820432980348006
448.808837890625        0.006602364016947863
449.1059265136719       1.0
449.3346862792969       0.008646025858163148
449.3975830078125       0.008125824216461769


