CHARGE: 1
PRECURSORMZ: 355.1023581559999
COMPOUNDNAME: challenge92
FORMULA: C16H18O9
SMILES: O[C@@H]1[C@H](O)C[C@@](OC(/C=C/C2=CC(O)=C(O)C=C2)=O)(C(O)=O)C[C@H]1O
INCHIKEY: GWTUHAXUUFROTF-JUHZACGLSA-N
PRECURSORTYPE: [M+H]+
IONMODE: positive
PARENTMASS: 354.09508215599993
NUM PEAKS: 27
73.04700469970703       0.02043349446410675
84.96034240722656       0.01343304073944085
89.03907012939453       0.019347187617034044
91.05719757080078       0.017655606532335298
107.04914093017578      0.01394550108839465
117.0329818725586       0.03556331566653574
123.04374694824219      0.027984137195459707
124.04788970947266      0.009111469012781318
134.03500366210938      0.01652829019512642
135.04380798339844      0.11676737596177245
145.02828979492188      0.08498269359992561
163.0386962890625       1.0
164.04209899902344      0.10416294119272783
218.86854553222656      0.013296028933157766
248.90200805664062      0.009430157142100964
266.8709411621094       0.009676472084796882
285.0115661621094       0.011773748315412414
287.1724548339844       0.01723961784337188
293.8973388671875       0.016385466942266835
308.90081787109375      0.015279754145361932
353.26080322265625      0.014120462043378393
353.86480712890625      0.028628878401350387
354.8805236816406       0.01241472196195139
355.0721740722656       0.027632616039803343
355.2818908691406       0.24990089800170556
355.8605651855469       0.010813288746509912
356.28570556640625      0.046699514807156


