CHARGE: 1
PRECURSORMZ: 137.10732438399998
COMPOUNDNAME: challenge162
FORMULA: C8H12N2
SMILES: CC1=C(C)N=C(C)C(C)=N1
INCHIKEY: FINHMKGKINIASC-UHFFFAOYSA-N
PRECURSORTYPE: [M+H]+
IONMODE: positive
PARENTMASS: 136.100048384
NUM PEAKS: 10
53.11032485961914       0.002823080612242636
55.05602264404297       0.010846064270734554
69.07177734375          0.008507305700220076
96.08076477050781       0.018601291374836883
122.08880615234375      0.002952705833470401
137.0596466064453       0.01022702428136257
137.07398986816406      0.03206819533078836
137.08493041992188      0.049327458672339265
137.10691833496094      1.0
138.1103515625          0.08967442994176543


