CHARGE: 1
PRECURSORMZ: 885.4842268440001
COMPOUNDNAME: challenge135
FORMULA: C45H72O17
SMILES: C[C@@]12[C@]([C@@H]3C)([H])[C@](O[C@]34CC[C@@H](C)CO4)([H])C[C@@]1([H])[C@@](CC=C5[C@@]6(CC[C@H](O[C@@](O[C@H](CO)[C@@H](O[C@]([C@@H]([C@@H](O)[C@@H]7O)O)([H])O[C@@H]7CO)[C@@H]8O)([H])[C@@H]8O[C@@](O[C@@H](C)[C@H](O)[C@H]9O)([H])[C@@H]9O)C5)C)([H])[C@]6([H])CC2
INCHIKEY: OLAMGHNQGZIWHZ-YIKYYZBWSA-N
PRECURSORTYPE: [M+H]+
IONMODE: positive
PARENTMASS: 884.476950844
NUM PEAKS: 66
67.05615997314453       0.019734470405777176
68.67083740234375       0.015364056811384239
69.0352783203125        0.032032299049593746
69.07220458984375       0.09024389542463611
71.04185485839844       0.04438850626841447
71.05152893066406       0.46482844999839645
72.05438232421875       0.02167328181581138
73.03053283691406       0.028390981458990723
75.04647064208984       0.05178601619288115
81.07254791259766       0.05277451067882376
83.0517349243164        0.1388774772821393
85.03117370605469       1.0
86.03404998779297       0.030566867183654575
87.0464096069336        0.03571449144690149
97.03131866455078       0.09149478956784124
99.04689025878906       0.019379787064937454
105.0719223022461       0.03558005841038419
107.0881118774414       0.037256515916097646
109.03135681152344      0.03479702949243342
109.06678771972656      0.025703168247423542
109.1038589477539       0.046957459873362827
111.03208923339844      0.023090311426766708
111.0475082397461       0.07211580862616378
119.08840942382812      0.03192754006389028
121.10346221923828      0.04633100623704103
125.0985336303711       0.03113671135872119
127.04330444335938      0.08336897124379677
129.03457641601562      0.02897183684204655
129.05856323242188      0.39394070697619943
131.08935546875         0.021426880437192455
133.1052703857422       0.06436639757546012
135.12049865722656      0.03112857387121828
143.08941650390625      0.03258882258246684
145.05377197265625      0.06832678528850324
145.1036834716797       0.02949687145741508
147.06971740722656      0.26673815164389886
147.12103271484375      0.062232223282722154
149.13583374023438      0.04021197294354035
157.1071319580078       0.07845873067221443
159.1221923828125       0.0560569530876351
161.1374053955078       0.052147555938853854
163.0644989013672       0.032462269945493866
165.0806884765625       0.02221006404366068
171.1208953857422       0.0387297737137933
173.1376495361328       0.02664825190645972
175.1519317626953       0.022150384777882975
197.13619995117188      0.024033475640959496
251.1868896484375       0.018182081805911316
253.19427490234375      0.2842803001253543
254.20327758789062      0.04064207674084279
255.09414672851562      0.05789956349079085
271.2041320800781       0.16707452727189065
273.0948486328125       0.12456397010738085
283.2506408691406       0.07572810795811855
309.1168518066406       0.303127095920476
310.1286926269531       0.036373791338000776
379.3047790527344       0.041330157411035365
397.30877685546875      0.40869696318988463
398.3175048828125       0.10939578055041574
415.3214111328125       0.37585708767971754
416.3260498046875       0.10725859527836612
490.8897705078125       0.01881399311457443
577.38818359375         0.041597602964163156
723.4459228515625       0.037343485722293415
885.4935302734375       0.09116732051251661
886.4940795898438       0.038708836296148595


