CHARGE: 1
PRECURSORMZ: 271.06009942000003
COMPOUNDNAME: challenge160
FORMULA: C15H10O5
SMILES: O=C1C(C2=CC=C(O)C=C2)=COC3=CC(O)=C(O)C=C13
INCHIKEY: GYLUFQJZYAJQDI-UHFFFAOYSA-N
PRECURSORTYPE: [M+H]+
IONMODE: positive
PARENTMASS: 270.05282342000004
NUM PEAKS: 22
67.7608413696289        0.005771546114474821
67.76802062988281       0.005681715386905366
93.03527069091797       0.005615759172013454
141.0722198486328       0.010743882340786232
145.03062438964844      0.011072323185993008
153.0221405029297       0.024494110081137922
169.0644073486328       0.04891969945390633
170.07261657714844      0.006423589920759961
197.05886840820312      0.04854632063003401
198.06954956054688      0.006693096726624345
215.07005310058594      0.06683122918043465
216.07630920410156      0.007890425098056491
219.3944091796875       0.008381839996871107
225.06129455566406      0.02067197621536464
236.74432373046875      0.0056914921569607285
243.0720977783203       0.017640276303703194
253.05674743652344      0.017001481076770963
270.9676818847656       0.02995790065477786
270.9972839355469       0.039496739038928426
271.0592346191406       1.0
272.0626525878906       0.16964171216431545
273.0735778808594       0.014328225325732637


