CHARGE: 1
PRECURSORMZ: 812.3276666280002
COMPOUNDNAME: challenge38
FORMULA: C45H49NO13
SMILES: CC(O[C@]12[C@@]([C@]3([C@@H](O)C[C@@]1([H])OC2)C)([H])[C@@H]([C@]4(C(C)(C([C@@H](O)C3=O)=C(C)[C@@H](OC([C@H](O)[C@H](C5=CC=CC=C5)NC(C6=CC=CC=C6)=O)=O)C4)C)O)OC(C7=CC=CC=C7)=O)=O
INCHIKEY: TYLVGQKNNUHXIP-MHHARFCSSA-N
PRECURSORTYPE: [M+H]+
IONMODE: positive
PARENTMASS: 811.3203906280002
NUM PEAKS: 47
77.04134368896484       0.01580587919466015
79.05673217773438       0.03807022886342124
86.09966278076172       0.015744068474470584
91.05713653564453       0.12903040282839534
91.16139221191406       0.010913262446654207
93.0726547241211        0.02007746123794289
94.12013244628906       0.011804296515269787
95.05227661132812       0.034758910870683106
105.01115417480469      0.04070078594680235
105.01939392089844      0.07711218556964261
105.03679656982422      1.0
105.05540466308594      0.01684755550606568
105.07186889648438      0.021141874557529056
106.04024505615234      0.06251851789861736
118.06884765625         0.045365129114267544
119.03471374511719      0.015410618321092527
119.05274963378906      0.03778574708948489
119.08872985839844      0.011028002612715243
121.06734466552734      0.011759733648517463
121.10457611083984      0.010003420441721323
122.0417251586914       0.04291895532610376
122.063720703125        0.5669876524788701
123.06623840332031      0.03253730555316168
131.08949279785156      0.012506030558449966
133.0681915283203       0.012802098538635103
133.10394287109375      0.011489215416221821
136.07757568359375      0.018311813268626336
149.09967041015625      0.013418923175737707
155.08901977539062      0.012450938697208855
169.10389709472656      0.014030532698513653
183.08377075195312      0.013004316718030094
183.12255859375         0.012010655904414169
240.10972595214844      0.060529412922074546
249.13572692871094      0.01233379963420028
263.14825439453125      0.013503836755019597
268.10467529296875      0.025934470031095825
281.1597900390625       0.023037708417613514
286.002197265625        0.017416407768489944
286.0393371582031       0.03042659062071996
286.1065673828125       0.7775356701022117
287.1094970703125       0.13249673310437612
291.1461486816406       0.013343834710483338
299.17352294921875      0.02011723187507256
309.1564636230469       0.02804671792058955
327.1692199707031       0.04515789891648926
345.17645263671875      0.013993256246496734
743.235595703125        0.010555277329569452


