CHARGE: 1
PRECURSORMZ: 801.499482984
COMPOUNDNAME: challenge138
FORMULA: C42H72O14
SMILES: C[C@]12[C@@]3([H])[C@]([C@@]4([H])C(C(C)([C@@H](O)CC4)C)=CC3)([C@H](O)C[C@@]1([C@]([C@H](C)CC[C@H](C(C)(O)C)O[C@@H]5O[C@@H]([C@@H](O)[C@H](O)[C@H]5O)CO[C@@H]6O[C@@H]([C@@H](O)[C@H](O)[C@H]6O)CO)([H])CC2)C)C
INCHIKEY: NWPTUAQJIALPLJ-NCHDIWMLSA-N
PRECURSORTYPE: [M+H]+
IONMODE: positive
PARENTMASS: 800.492206984
NUM PEAKS: 97
56.051002502441406      0.03797453626181996
57.0348014831543        0.04207895853416993
61.02975082397461       0.053991369458405
67.05598449707031       0.07430834716763586
69.03546905517578       0.1263028564047239
69.07061767578125       0.13403135263597285
70.06720733642578       0.20418360073006844
71.05111694335938       0.07949288410522362
72.0745849609375        0.03000501181995632
72.08283996582031       0.11217298519530287
73.02949523925781       0.02725599362685178
81.03484344482422       0.06174756544183254
81.07211303710938       0.15904863554706095
82.53133392333984       0.03104566059890968
83.087646484375         0.0754863808866552
84.0466079711914        0.06489517077190624
84.08296966552734       0.12151793445889537
85.03070831298828       0.8236310020739493
86.03374481201172       0.03399424894687867
86.09688568115234       0.13772239040003062
91.04150390625          0.04783583118243817
91.05607604980469       0.04231307021646099
93.0721435546875        0.11378336827790443
95.08578491210938       0.3235784955136194
97.03094482421875       0.21290175292972255
97.10263061523438       0.02772560552981392
99.04669189453125       0.04132182574519846
105.07273864746094      0.10058773858191622
107.08839416503906      0.19511828029652453
109.029296875           0.04901715403678569
109.10135650634766      0.33319060479424367
119.08529663085938      0.22269202869082846
120.0843505859375       0.07596821678631145
121.10118865966797      0.24170228899897858
122.10658264160156      0.02774426763514758
123.11959838867188      0.09373898139665059
127.03890228271484      0.16276220388811677
127.1149673461914       0.12385670403523083
129.1051025390625       0.0743721414423875
131.08657836914062      0.05578554419043017
133.1044921875          0.16299594180502963
134.10745239257812      0.027557039213071382
135.12060546875         0.19321174795415783
136.0782470703125       0.07142394741689252
137.13478088378906      0.05985819266797913
145.0533447265625       0.263512156644173
145.10519409179688      0.12159606637355487
147.11659240722656      0.1507617637420074
149.1362762451172       0.10442833482440801
157.1040802001953       0.05490903447731454
159.09422302246094      0.054375678757926815
159.11669921875         0.15436353138313522
161.13182067871094      0.1538670065041156
163.06007385253906      0.15421263482464723
163.15194702148438      0.07493131687410147
169.10272216796875      0.03438266592790694
171.1195526123047       0.05628181117133883
173.1318359375          0.19113912922833298
175.14718627929688      0.1277999362505771
179.14585876464844      0.04934781679157407
183.11997985839844      0.03475962326243951
185.13868713378906      0.07250367336613697
186.14157104492188      0.03380448078905759
187.14784240722656      0.22459395624373568
189.1630096435547       0.24121545211856196
190.1693115234375       0.05061766971340269
191.184814453125        0.08341212058328928
199.1521453857422       0.053674939689218576
201.1629180908203       0.15485293976935388
203.17990112304688      0.14861186528658535
207.1796417236328       0.1036589612193004
213.16839599609375      0.043688003536717514
215.18455505371094      0.10512382996486007
227.1858367919922       0.03875886048205567
229.1986083984375       0.03364290949136811
229.72581481933594      0.03278661674755946
233.19418334960938      0.033608025968620454
241.202392578125        0.03642487510256122
255.21817016601562      0.028545110416272966
295.2505187988281       0.04744634149477446
302.4780578613281       0.030091030184095896
325.1125183105469       0.1321505802034719
405.3509826660156       0.21679815234318
406.25616455078125      0.028115850223541596
406.3689270019531       0.07199279589659437
423.3607177734375       1.0
424.36700439453125      0.3133900400198066
425.37933349609375      0.038696176290477294
441.3727722167969       0.73374569123272
442.37298583984375      0.18908778522783543
459.3836364746094       0.21939710747458993
460.40435791015625      0.08512227659594826
567.4229736328125       0.04453442139923405
585.4324340820312       0.06765548041708629
586.4357299804688       0.03768837775061417
603.4260864257812       0.22629662199821549
604.4468994140625       0.10959440775231256


