CHARGE: 1
PRECURSORMZ: 331.081228788
COMPOUNDNAME: challenge88
FORMULA: C17H14O7
SMILES: O=C1C=C(C2=CC(OC)=C(O)C(OC)=C2)OC3=CC(O)=CC(O)=C13
INCHIKEY: HRGUSFBJBOKSML-UHFFFAOYSA-N
PRECURSORTYPE: [M+H]+
IONMODE: positive
PARENTMASS: 330.073952788
NUM PEAKS: 21
178.53125   0.006828669197480777
183.26296997070312      0.00720740552915266
242.06298828125         0.011807980758085082
258.0594787597656       0.01818754105328233
259.0616455078125       0.008834376569684324
270.0517883300781       0.10691212086086319
271.0606994628906       0.011528612688845098
273.0452575683594       0.014656543410223715
286.0587158203125       0.022023154051234495
287.0555725097656       0.03942221320659944
301.0378723144531       0.008401737761292067
302.04815673828125      0.012922274062053244
315.04949951171875      0.32042894787682086
316.05340576171875      0.09329500405703026
317.06585693359375      0.014711265020671535
330.07733154296875      0.010891912020401066
330.95452880859375      0.03273663305127313
330.99786376953125      0.04404629651095398
331.0804443359375       1.0
332.0841064453125       0.18606294965418646
333.0961608886719       0.011608204860708628


