CHARGE: 1
PRECURSORMZ: 499.3418005719999
COMPOUNDNAME: challenge108
FORMULA: C31H46O5
SMILES: C[C@]12[C@@]([C@]([C@H](C(O)=O)CCC(C(C)C)=C)([H])[C@H](O)C1)(CC=C3C2=CC[C@@H](C(C)=C)[C@]3(C)CCC(O)=O)C
INCHIKEY: KVAQLXUMUVEKGR-SMFZDKLCSA-N
PRECURSORTYPE: [M+H]+
IONMODE: positive
PARENTMASS: 498.3345245719999
NUM PEAKS: 69
55.05584716796875       0.2223617556620868
57.071449279785156      0.12061215515425122
69.07158660888672       0.1394993776249764
81.07102966308594       0.12512374968173032
83.08749389648438       0.12100394076191348
93.07188415527344       0.1031913852293721
95.08812713623047       0.24940499565524687
97.10324096679688       0.1326815382513106
99.04718017578125       0.07456633383236924
105.07271575927734      0.14034941682320984
107.08815002441406      0.1911972270217848
109.1031723022461       0.1579452051326318
119.08875274658203      0.1970959504464808
121.06922912597656      0.06679656363179895
121.10368347167969      0.14406871573148242
131.08749389648438      0.09842267738748786
133.1037139892578       0.10154727987114431
143.0880126953125       0.19946578935429762
145.1042022705078       0.17733394397317837
149.10020446777344      0.0766485411188682
157.10507202148438      0.2422542005267624
159.12120056152344      0.29839544869403883
161.0626220703125       0.10933115024798862
169.1049041748047       0.24535897637493012
171.12086486816406      0.2032591772688702
172.12460327148438      0.10193982672581196
181.1074981689453       0.1110396023615148
183.12139892578125      0.26230847453011213
185.09974670410156      0.08625431507305337
185.13427734375         0.1474261400520686
193.091552734375        0.10191771634930706
195.12054443359375      0.13736466140177975
197.1384735107422       0.2229396533325615
207.12278747558594      0.09073313321261496
209.13755798339844      0.3112064659944291
211.115234375           0.07644751203608495
211.1486358642578       0.33802634414153543
219.1414794921875       0.10169909305202844
223.14749145507812      0.402673800560401
224.15597534179688      0.09209455077839132
225.12950134277344      0.10195495757921126
225.1732940673828       0.10417580590739993
237.16795349121094      0.10705829762999344
245.1574249267578       0.08696472959582609
265.1625671386719       0.22460863179519014
267.18170166015625      0.1677897882597442
283.1728515625          0.13889920706459116
289.20263671875         0.0799474007400621
307.205322265625        0.3665969535476471
325.2156066894531       0.844411855089499
326.2294616699219       0.3104609913427227
327.2384948730469       0.08500878667217639
367.2760314941406       0.12965937908657066
421.28253173828125      0.10214118083540649
425.31597900390625      0.33593033176889375
426.31585693359375      0.14583092556892865
445.31976318359375      0.1211001059313698
453.3394470214844       0.10835420518662048
463.3199157714844       0.6888509440044494
464.3269958496094       0.17803822575322226
481.3308410644531       1.0
482.32843017578125      0.424770183805741
483.18951416015625      0.12114284695705452
484.1641540527344       0.11633200537642245
499.1902770996094       0.875730891211884
499.3537292480469       0.27119569973790525
500.1896057128906       0.28571290251747977
500.3388671875          0.10811798767484647
501.1825256347656       0.4382944125701485


