CHARGE: 1
PRECURSORMZ: 162.058325592
COMPOUNDNAME: challenge224
FORMULA: C6H11NO2S
SMILES: N[C@@H](CSCC=C)C(O)=O
INCHIKEY: ZFAHNWWNDFHPOH-YFKPBYRVSA-N
PRECURSORTYPE: [M+H]+
IONMODE: positive
PARENTMASS: 161.051049592
NUM PEAKS: 33
53.003971099853516      0.011378279544112066
56.57512283325195       0.00716600730933734
58.996726989746094      0.011526546624936457
72.08248138427734       0.007366527224394579
72.99834442138672       0.032404489460015284
73.00237274169922       0.06417857594725852
73.0126724243164        1.0
73.02323150634766       0.019462328407536592
73.02532958984375       0.010715295901545454
74.00777435302734       0.028982676891091942
74.01586151123047       0.02721477666028061
75.00849914550781       0.014735535548912462
77.12751007080078       0.007061680032087491
79.0235366821289        0.04247174095976486
80.02603149414062       0.010134551194371887
81.0074462890625        0.014106854490040226
81.01912689208984       0.2020016126098001
82.02197265625          0.014279367569099281
83.01769256591797       0.012885306309766321
84.96205139160156       0.13658280010151805
86.9914321899414        0.010559927095662799
116.05435180664062      0.013989361941061134
120.01380920410156      0.026204820348230882
139.98544311523438      0.00920084455197672
145.007568359375        0.02421081831712114
145.03146362304688      0.5097943959937802
146.03880310058594      0.03514771354165497
161.1327667236328       0.007701518437954576
162.0604705810547       0.013992203332951517
162.97630310058594      0.011215437023619419
163.0416717529297       0.015767229854168865
163.1272735595703       0.008721695104449052
180.9875946044922       0.008438691185410447


