CHARGE: 1
PRECURSORMZ: 523.269029556
COMPOUNDNAME: challenge176
FORMULA: C31H38O7
SMILES: CC(O[C@@]1(C(/C(C)=C\[C@@H](C2(C)C)[C@@H]2CCC3=C)=O)[C@]([C@H]3OC(C)=O)([H])[C@@H](OC(C4=CC=CC=C4)=O)[C@@H](C)C1)=O
INCHIKEY: JPYYWXPAHJBKJX-JNRDNZLTSA-N
PRECURSORTYPE: [M+H]+
IONMODE: positive
PARENTMASS: 522.2617535559999
NUM PEAKS: 107
53.040035247802734      0.02491174282558374
55.055503845214844      0.02455082904082934
57.071407318115234      0.027300434658554397
57.93705368041992       0.012492178354550522
67.05633544921875       0.042036893868546324
69.07200622558594       0.048601226277459476
77.04029083251953       0.013257056349120389
79.05667114257812       0.03131763881431855
81.07228088378906       0.07387007638940442
83.05134582519531       0.01122966465530508
83.08758544921875       0.019786363613985412
89.06224060058594       0.014509453959084699
90.97921752929688       0.036475803697363564
91.0570297241211        0.04067351746948357
93.07272338867188       0.06547369462758354
95.05184936523438       0.061392817192157514
95.08824920654297       0.056297948741976134
97.06636047363281       0.014489666044867145
104.10961151123047      0.02506577809003588
105.01118469238281      0.023791949479240595
105.01927947998047      0.06954797551538536
105.03653717041016      1.0
105.07271575927734      0.072308907280918
106.0400390625          0.06273431573306203
107.08857727050781      0.047224221162078805
109.06813049316406      0.017163076005836605
109.1041259765625       0.028588293033636362
117.07157897949219      0.013949219333853239
119.08914184570312      0.07260136805483106
121.10457611083984      0.04328920418143122
123.11944580078125      0.027145716575362334
131.08901977539062      0.060956988684030516
133.1048126220703       0.044967697107332276
141.07192993164062      0.018861156321970825
142.08099365234375      0.014781402512319363
143.08538818359375      0.05857923750879401
145.10516357421875      0.054659712734595085
147.0830078125          0.0178190279891654
147.11949157714844      0.023122161340989347
154.08148193359375      0.013177325592812513
155.08531188964844      0.0712602014156938
156.09628295898438      0.015284434213695396
157.10577392578125      0.042259368314599505
159.08670043945312      0.028553410503628848
159.12094116210938      0.04493210410010423
161.10089111328125      0.03315832798510513
161.13600158691406      0.03289489132927653
167.08872985839844      0.017950474918238764
168.09515380859375      0.01361965902984671
169.10606384277344      0.09608312767409105
170.1094207763672       0.02011400943253759
171.08901977539062      0.01933968260953118
171.12205505371094      0.03944909727697833
173.1005401611328       0.04918754457855611
173.1371612548828       0.03919873616785556
175.15109252929688      0.027721114962585267
181.1046600341797       0.022960284897285806
182.1120147705078       0.034371750474259964
183.12185668945312      0.07261065438969405
184.0818328857422       0.02132112060214946
184.1267852783203       0.01825745985177931
185.10145568847656      0.024527070405989986
185.13604736328125      0.01998703626270202
187.1169891357422       0.051484208003280074
189.13380432128906      0.014595554809206822
193.10491943359375      0.016813678520943943
195.0846710205078       0.022427055321054663
195.12147521972656      0.04236239269754157
196.1272735595703       0.022642248672088687
197.09861755371094      0.03932925308051859
197.13816833496094      0.1285610017193618
198.10723876953125      0.015140383660741519
198.1423797607422       0.019833028656730485
199.11566162109375      0.029930700847090753
199.15188598632812      0.0187396474307097
201.1302490234375       0.02390831907907438
207.12039184570312      0.018402348802426513
210.109130859375        0.03172906908524222
210.14773559570312      0.016623459049240837
211.1156463623047       0.04171752139300499
211.1543731689453       0.04437718163180389
212.12081909179688      0.015239445966336975
213.12591552734375      0.0594934470974582
225.12521362304688      0.1603244433813754
225.175537109375        0.023331250811084944
226.13558959960938      0.029247190645149548
239.14962768554688      0.05640521178707086
253.1962127685547       0.18302357863344756
254.2053985595703       0.03242316211332476
263.1826171875          0.026770726352635228
271.2122497558594       0.028217095480062165
281.1889953613281       0.430280078625316
282.19140625            0.08623910103742535
299.2015686035156       0.0749017999475374
306.8988952636719       0.01641369886099058
313.2226867675781       0.01692739636394976
341.2269592285156       0.016085726326636258
363.20367431640625      0.02523231844503137
375.2434997558594       0.05333170807491554
376.23797607421875      0.019751812985745153
403.2391662597656       0.036225304295837764
435.265869140625        0.02919551077413985
463.2645263671875       0.03423986100949693
481.301513671875        0.030845214679041586
522.3602294921875       0.01812150459036739
523.2582397460938       0.08204005965823633
525.2952270507812       0.06471032056289655


