CHARGE: 1
PRECURSORMZ: 607.280262936
COMPOUNDNAME: challenge182
FORMULA: C37H38N2O6
SMILES: [H][C@]12N(C)CCC(C1=C3)=CC(OC)=C3OC4=C5C(OCO5)=CC6=C4[C@](N(C)CC6)([H])CC(C=C7)=CC=C7OC8=C(OC)C=CC(C2)=C8
INCHIKEY: YVPXVXANRNDGTA-WDYNHAJCSA-N
PRECURSORTYPE: [M+H]+
IONMODE: positive
PARENTMASS: 606.2729869359999
NUM PEAKS: 41
58.06675720214844       0.02346438661359291
67.47296905517578       0.03798793112042355
67.48013305664062       0.012235837491588545
67.58528137207031       0.014825087085257435
69.2623062133789        0.008855248463908184
89.06182098388672       0.016304530925669445
121.06685638427734      0.020433676126066787
133.08958435058594      0.009628596731282066
146.0989227294922       0.01903656523817323
162.09591674804688      0.015082045338630027
170.923583984375        0.011649864526626481
174.09112548828125      0.1016366732296781
175.1013641357422       0.015897201233145936
176.1103515625          0.0279528822805812
188.0753936767578       0.012354104099983266
190.0900421142578       0.024892125320881413
203.096923828125        0.014804695427462109
213.09432983398438      0.022531983554493765
227.1133575439453       0.03128756226256556
241.12896728515625      0.011184996757807077
319.12628173828125      0.02323320651990088
322.1079406738281       0.012943833569358451
334.1134948730469       0.01358857684420028
349.15264892578125      0.013232916124446803
363.15057373046875      0.024505871551303644
365.1506042480469       0.08678092633702073
366.1563415527344       0.018570120321629097
379.17510986328125      0.020074051675259108
400.2019958496094       0.022555878594227873
533.2135620117188       0.018184179478187186
534.22509765625         0.015693227633096805
546.22119140625         0.01108554744104861
564.2368774414062       0.07257148734988446
565.2556762695312       0.03453219183812979
576.2479248046875       0.0622641955534114
577.2623291015625       0.02281919411589827
606.271484375           0.02434809002125561
607.0565795898438       0.022925926962316684
607.278564453125        1.0
608.2813720703125       0.3912507521353523
609.2845458984375       0.06749305498687991


