CHARGE: 1
PRECURSORMZ: 239.07027018
COMPOUNDNAME: challenge62
FORMULA: C15H10O3
SMILES: O=C1C=C(C2=CC=CC=C2)OC3=CC=CC(O)=C13
INCHIKEY: IYBLVRRCNVHZQJ-UHFFFAOYSA-N
PRECURSORTYPE: [M+H]+
IONMODE: positive
PARENTMASS: 238.06299418
NUM PEAKS: 17
59.764469146728516      0.007936665364286584
59.77103805541992       0.009881402393375982
71.57241821289062       0.004169258124913874
97.65827178955078       0.004855695224179417
103.05644226074219      0.011927660474315894
137.022705078125        0.035062558963201665
165.07489013671875      0.004819394450403335
174.76760864257812      0.005523720038909088
231.79592895507812      0.005940685938303291
238.06654357910156      0.011014238081151916
238.99424743652344      0.02868936976287518
239.0173797607422       0.030802403462663705
239.06988525390625      1.0
239.1361083984375       0.01234889954956089
240.07330322265625      0.17091746079278344
241.07723999023438      0.010295860079328693
256.5968017578125       0.004593058465989495


