CHARGE: 1
PRECURSORMZ: 229.085920244
COMPOUNDNAME: challenge90
FORMULA: C14H12O3
SMILES: OC1=CC=C(/C=C/C2=CC(O)=CC(O)=C2)C=C1
INCHIKEY: LUKBXSAWLPMMSZ-OWOJBTEDSA-N
PRECURSORTYPE: [M+H]+
IONMODE: positive
PARENTMASS: 228.078644244
NUM PEAKS: 65
55.01959228515625       0.018844018794870642
55.93629455566406       0.07345378833031212
57.017784118652344      0.014497842681594784
61.0118408203125        0.018432100184334117
68.99925994873047       0.023250322310032902
73.94669342041016       0.01842855102420737
74.95491790771484       0.045725214856895395
82.268310546875         0.013587282504381206
91.05687713623047       0.15424904524506364
92.05909729003906       0.014168608893108926
97.97071075439453       0.02252724844540614
105.92345428466797      0.01453539530329456
105.93765258789062      0.053894116115927544
107.03458404541016      0.029907742360108774
107.05206298828125      0.43389556556206105
108.05464172363281      0.029112578109298824
110.04011535644531      0.015183281946638408
111.04645538330078      0.030968015370147157
113.96589660644531      0.02664626480833054
114.97113800048828      0.017414704500631317
118.94525146484375      0.03151974195630694
119.05255126953125      0.18339180085989668
120.05992889404297      0.057331593432165
121.03162384033203      0.03859896811409853
123.04618072509766      0.01895519623584101
128.95440673828125      0.12292177385665196
135.02284240722656      0.0244384152358099
135.04383850097656      0.4429707371438927
135.9490203857422       0.0421790445117763
136.053466796875        0.05396352534310194
141.07276916503906      0.03984419094456792
141.96104431152344      0.02218866628487991
145.0679931640625       0.03390786185878713
145.93157958984375      0.02985987113400789
146.96311950683594      0.02817875164434132
153.07272338867188      0.027159540873856306
155.0883026123047       0.02406696283739242
157.06893920898438      0.05337602360864282
159.97042846679688      0.018306228448882467
163.93972778320312      0.24120135428543493
165.07455444335938      0.10083368382575512
171.0479278564453       0.02403731191920309
173.0623016357422       0.02348379339295758
181.0707550048828       0.05763736129264979
181.9508056640625       0.06731249138942891
182.07522583007812      0.03903600089031453
183.0792694091797       0.09937379853214144
185.06478881835938      0.04158390436747918
186.07020568847656      0.023528564890621675
186.96173095703125      0.10859019582475568
193.0708465576172       0.05373612448132883
199.0811004638672       0.050794248798964214
204.9706573486328       0.05077485958288048
209.06373596191406      0.02302135325957335
210.07249450683594      0.061317030209710306
211.07479858398438      0.21129139370024694
212.0862579345703       0.0322461740208145
213.06080627441406      0.04518510984125934
227.0701446533203       0.19694291086435567
228.0773468017578       0.841794428201293
228.23934936523438      0.04382678453622908
229.03746032714844      0.040809570214608765
229.0848388671875       1.0
230.0968475341797       0.13152821711922263
230.15780639648438      0.017911887825430208


