CHARGE: 1
PRECURSORMZ: 347.07614340799995
COMPOUNDNAME: challenge145
FORMULA: C17H14O8
SMILES: O=C1C=C(C2=C(O)C=CC(O)=C2OC)OC3=C(OC)C(O)=CC(O)=C13
INCHIKEY: CPFJPTACQDZPLS-UHFFFAOYSA-N
PRECURSORTYPE: [M+H]+
IONMODE: positive
PARENTMASS: 346.06886740799996
NUM PEAKS: 38
94.04376220703125       0.007602482052440222
136.0176239013672       0.011136178715265923
137.02603149414062      0.011499632109406861
142.02870178222656      0.01679305334359612
147.83010864257812      0.008158100705354273
150.03587341308594      0.05752068663552672
151.04330444335938      0.012451296302158231
152.04678344726562      0.00949368073245548
162.0355682373047       0.009045143581330673
165.0232696533203       0.011812760545363492
165.05873107910156      0.00845456811173099
167.0025177001953       0.010584935991242233
169.01307678222656      0.08099992845072113
179.0070343017578       0.007755239975940347
181.016357421875        0.015215488355937374
183.0336456298828       0.012384803139177725
194.02703857421875      0.02126612288267555
261.0474548339844       0.008519129934342881
286.0478515625          0.03983131021448644
289.03363037109375      0.08820566257701067
290.0435791015625       0.01473885841619562
302.0459899902344       0.009573865544697443
314.041748046875        0.19633188897370488
315.046142578125        0.03647889404250811
317.0289306640625       0.08876817544906124
318.0382080078125       0.01365257136401227
331.0528259277344       0.01737660051019921
332.0516052246094       0.3519247324318389
333.0567321777344       0.05887396040432219
345.06756591796875      0.01419972586226258
345.9881286621094       0.00961946204887583
346.0726013183594       0.013639897331331242
346.9382019042969       0.02800935648896834
346.98248291015625      0.03693334065117459
347.075439453125        1.0
347.19512939453125      0.012185403567768704
348.07861328125         0.16926044642203594
349.08990478515625      0.014796338657455924


