CHARGE: 1
PRECURSORMZ: 639.446659564
COMPOUNDNAME: challenge196
FORMULA: C36H62O9
SMILES: C[C@]12[C@](CC=C3[C@@]2([H])CC[C@H](O[C@]4([H])O[C@@H]([C@@H](O)[C@H](O)[C@H]4O)CO)C3(C)C)([H])[C@]5([C@@](C)([C@]([C@H](C)CC[C@@H](O)C(C)(O)C)([H])CC5)C[C@H]1O)C
INCHIKEY: LLZGAVAIPZROOJ-FDWAMWGASA-N
PRECURSORTYPE: [M+H]+
IONMODE: positive
PARENTMASS: 638.439383564
NUM PEAKS: 38
67.0556640625           0.2221805141518255
81.07135772705078       0.2831090235075407
85.02935028076172       0.14963003949090828
93.0716781616211        0.268156863607863
95.05036926269531       0.19872071457643525
95.08587646484375       0.9004883672324463
105.07160949707031      0.20470304817010793
107.08818817138672      0.3812923097231236
109.08916473388672      0.15052637310658146
109.10413360595703      0.5304430681905684
119.08767700195312      0.2959860296786826
121.10435485839844      1.0
123.1190185546875       0.26976430857909733
133.1033935546875       0.3057622845325442
135.11962890625         0.36661271409242413
137.13548278808594      0.2112850935571518
145.1032257080078       0.2084485683170713
147.11962890625         0.325483934130485
159.1204071044922       0.29685722771623746
161.13540649414062      0.2857117493702355
173.13558959960938      0.2191189457357519
189.16725158691406      0.18533598072755672
191.18014526367188      0.20280827659036157
203.18272399902344      0.1957950872870076
423.37799072265625      0.40951350281056464
441.3753967285156       0.9585888875444135
442.38494873046875      0.32310710946351767
459.3988342285156       0.5576797386339886
460.3897705078125       0.20947376989670763
477.41290283203125      0.15575711441363152
585.4221801757812       0.26730009790225173
603.4393920898438       0.22104775209829827
621.4505004882812       0.23001238628488455
638.2551879882812       0.824145555347773
639.2657470703125       0.18327775638839694
639.4799194335938       0.3445833874179106
640.2360229492188       0.15206210742847084
640.4660034179688       0.2584283938530586


