CHARGE: 1
PRECURSORMZ: 217.049534736
COMPOUNDNAME: challenge165
FORMULA: C12H8O4
SMILES: O=C1OC(C(C=C1)=C2)=C(OC)C3=C2C=CO3
INCHIKEY: QXKHYNVANLEOEG-UHFFFAOYSA-N
PRECURSORTYPE: [M+H]+
IONMODE: positive
PARENTMASS: 216.042258736
NUM PEAKS: 27
52.33127212524414       0.005293719417895279
52.336181640625         0.005155969510484252
53.92579650878906       0.0056795542532459145
54.260040283203125      0.01284973377978665
115.05570220947266      0.010864919779273851
117.07327270507812      0.007294768062551719
131.05162048339844      0.008363028610158352
145.06890869140625      0.00688812361220061
146.04002380371094      0.007613173999898301
158.03909301757812      0.010075747335044214
161.05905151367188      0.10448624217300191
162.06607055664062      0.012894418518473736
173.0275421142578       0.01803513036204442
173.06460571289062      0.022117659404588305
174.0305633544922       0.0865876155871466
175.04075622558594      0.008394974471572038
185.02906799316406      0.037795242777728826
189.05491638183594      0.03553530422517108
201.02517700195312      0.007002526998836923
202.02565002441406      0.3048543081864553
203.02804565429688      0.027585967888520888
216.041259765625        0.03374227797197353
216.95228576660156      0.008409622659975195
216.9830780029297       0.030939567102657484
217.00430297851562      0.04711421578630399
217.04901123046875      1.0
218.05201721191406      0.1295829057235555


