CHARGE: 1
PRECURSORMZ: 225.091005624
COMPOUNDNAME: challenge61
FORMULA: C15H12O2
SMILES: O=C1CC(C2=CC=CC=C2)OC3=CC=CC=C13
INCHIKEY: ZONYXWQDUYMKFB-UHFFFAOYSA-N
PRECURSORTYPE: [M+H]+
IONMODE: positive
PARENTMASS: 224.083729624
NUM PEAKS: 74
56.96641540527344       0.0249723234710669
72.93919372558594       0.01715379518548128
74.93922424316406       0.024923903929867704
79.05620574951172       0.016110670090961274
84.93909454345703       0.023876501936922197
86.55827331542969       0.01366502866837407
96.94017791748047       0.02551022442914134
97.9713363647461        0.08795406145079282
98.96459197998047       0.045764671050708264
99.97136688232422       0.03665816935342414
102.94990539550781      0.022806221008009112
103.05690002441406      0.04025997006843108
105.03568267822266      0.032656742716267395
113.96372985839844      0.10863379099286904
114.9567642211914       0.22762221331134003
115.96403503417969      0.14348269286016269
116.97510528564453      0.07616244496054475
117.979736328125        0.17140886528770063
121.02831268310547      0.6198385752933001
122.03497314453125      0.04073572807669992
129.07168579101562      0.014706572573232272
131.04925537109375      0.18109625214479594
132.9681854248047       0.026834292887063984
137.9639129638672       0.15050680291040094
138.9729766845703       0.026422889298030498
139.99148559570312      0.03871907878203701
140.9996337890625       0.07014035236776475
141.93711853027344      0.05361013007076983
141.9622344970703       0.18948887306293724
143.0867462158203       0.018896055367499397
143.95858764648438      0.3006279712310623
147.04379272460938      0.10362796413327756
151.0453338623047       0.03155407594854514
153.96328735351562      0.048356003727953296
155.08982849121094      0.05444494550587949
155.9790802001953       0.1667641557937038
156.09608459472656      0.019928414097690254
156.9818115234375       0.14129554739802241
157.98765563964844      0.016870396585909338
159.94329833984375      0.08953368749170754
159.97117614746094      0.10030042076511027
160.0506591796875       0.0661548452359669
161.94302368164062      0.02010820414662421
161.969482421875        0.3201189096790733
166.08181762695312      0.03600094787049593
168.09555053710938      0.020086403494162106
169.05599975585938      0.0163817101560585
171.1207733154297       0.04721481083490187
171.55703735351562      0.02819068569308673
174.99856567382812      0.01665954933670148
177.95574951171875      0.07153574345991846
179.0852813720703       0.14907257604327598
180.09063720703125      0.021806775179848026
181.10064697265625      0.14482944480144194
182.96620178222656      0.06345381313374082
183.08482360839844      0.05303947872182531
183.11639404296875      0.02429399969444388
183.9669952392578       0.018443165314714367
184.08914184570312      0.028303650713938755
184.99122619628906      0.05604848704042898
197.10252380371094      0.01841445903601402
198.10667419433594      0.01919971405766156
199.1116180419922       0.1546513469768216
200.97222900390625      0.3540964618456826
201.978515625           0.0502358845090638
202.9773712158203       0.01776202065181276
207.08047485351562      0.08857607511058489
209.10067749023438      0.04582432143069976
210.0666961669922       0.22177434146612965
211.07659912109375      0.025980953375846955
212.08497619628906      0.020450129822698743
225.09043884277344      1.0
226.09368896484375      0.18913350947083415
227.10581970214844      0.46935162509754186


