CHARGE: 1
PRECURSORMZ: 595.1657462599999
COMPOUNDNAME: challenge181
FORMULA: C27H30O15
SMILES: O=C1C=C(C2=CC=CC=C2)OC3=CC(O[C@H]4[C@@H]([C@H]([C@@H]([C@@H](CO[C@H]5[C@@H]([C@H]([C@@H]([C@@H](CO)O5)O)O)O)O4)O)O)O)=C(O)C(O)=C13
INCHIKEY: HAYLVXFWJCKKDW-IJTBWITGSA-N
PRECURSORTYPE: [M+H]+
IONMODE: positive
PARENTMASS: 594.1584702599998
NUM PEAKS: 16
51.60096740722656       0.00464209164775632
67.76175689697266       0.006468879454245684
67.76936340332031       0.00511390638299791
73.40450286865234       0.006244518003345572
85.03071594238281       0.014435789456437009
123.01069641113281      0.009720654402612805
224.0718231201172       0.00563660879649685
270.967529296875        0.028385730420910076
270.9972839355469       0.04559012526270264
271.05926513671875      1.0
272.06292724609375      0.1477117920525503
273.0745849609375       0.014374166723247414
433.1128845214844       0.09195938510165262
434.1297302246094       0.018235300852212147
595.1656494140625       0.03913205177350585
596.1813354492188       0.011406976174849127


