CHARGE: 1
PRECURSORMZ: 457.2333127439998
COMPOUNDNAME: challenge34
FORMULA: C25H32N2O6
SMILES: CC[C@@]1(C=CCN2CC3)[C@@]2([H])[C@@]3(C4=CC=C(OC)C=C4N5C)[C@]5([H])[C@](C(OC)=O)(O)[C@@H]1OC(C)=O
INCHIKEY: CXBGOBGJHGGWIE-ACSXSLCXSA-N
PRECURSORTYPE: [M+H]+
IONMODE: positive
PARENTMASS: 456.2260367439998
NUM PEAKS: 35
50.80096435546875       0.016598280606790517
59.59056854248047       0.007203820141023679
69.81922912597656       0.010235650502424235
70.21904754638672       0.006335963855647157
77.76837921142578       0.007167143164984341
91.054931640625         0.008246447203314081
91.12385559082031       0.006337106193608272
93.07014465332031       0.010441358841025232
119.03699493408203      0.015749831504067745
137.8173065185547       0.006104793120126024
145.08636474609375      0.008417965977545336
150.97280883789062      0.006526658919042106
157.08724975585938      0.018595219054415524
161.0836639404297       0.013720505587605132
162.0898895263672       0.025922440719374357
172.5273895263672       0.008392521774858937
173.08316040039062      0.0766233415176195
174.08888244628906      0.020127459444533164
188.10659790039062      1.0
189.11038208007812      0.1254866073804961
194.0806427001953       0.012825998215370933
207.0881805419922       0.014923669471281806
208.91424560546875      0.00706396453184885
222.11245727539062      0.01284749513572829
256.0975341796875       0.009099805283577752
258.2621765136719       0.00695286924105717
337.19183349609375      0.016695018481182794
355.20098876953125      0.00810605616383211
379.1979064941406       0.00795705751900795
397.2109680175781       0.09878063978272827
398.2146301269531       0.023012345809933814
457.23211669921875      0.5831057702544448
457.3482666015625       0.008812393572396554
458.2351989746094       0.15539651369370808
459.2355651855469       0.00890862460742042


