CHARGE: 1
PRECURSORMZ: 409.2009499959999
COMPOUNDNAME: challenge17
FORMULA: C25H28O5
SMILES: O=C1C[C@@H](C2=CC=CC=C2O)OC3=C(C[C@H](C(C)=C)C/C=C(C)\C)C(O)=CC(O)=C13
INCHIKEY: OGBMVWVBHWHRGD-MWTRTKDXSA-N
PRECURSORTYPE: [M+H]+
IONMODE: positive
PARENTMASS: 408.1936739959999
NUM PEAKS: 31
55.0198974609375        0.045454959057255544
63.53120422363281       0.010874550543931416
103.05582427978516      0.016008592988994076
107.05280303955078      0.03238822604785315
117.0892105102539       0.011254289878083723
121.04948425292969      0.012831735327447242
121.06783294677734      0.03248353149017648
123.00959014892578      0.02561217992119622
147.0469970703125       0.023863390170082686
159.05641174316406      0.012421781546544533
164.97349548339844      0.024932800107248135
164.98854064941406      0.05003435596292817
165.0178985595703       1.0
166.02154541015625      0.06939578426498386
179.03668212890625      0.026462204679300688
183.03497314453125      0.05501754350785618
197.06439208984375      0.013253670363956313
239.07772827148438      0.021391375027615747
252.5297393798828       0.012513492950448395
267.0642395019531       0.17481829082971068
268.0769958496094       0.04132518058613899
285.07427978515625      0.15161025369249986
286.08477783203125      0.026536622415986165
289.142822265625        0.20474526186329672
290.1551208496094       0.023575161819338847
294.6558532714844       0.013024665001116537
296.3482360839844       0.011448499029430348
368.480712890625        0.011972356767235067
409.08453369140625      0.016614483596653053
409.20013427734375      0.7920733798933992
410.2036437988281       0.20583515697379706


