CHARGE: 1
PRECURSORMZ: 309.112134992
COMPOUNDNAME: challenge132
FORMULA: C19H16O4
SMILES: O=C(CC(/C=C/C1=CC=C(O)C=C1)=O)/C=C/C2=CC=C(O)C=C2
INCHIKEY: PREBVFJICNPEKM-YDWXAUTNSA-N
PRECURSORTYPE: [M+H]+
IONMODE: positive
PARENTMASS: 308.104858992
NUM PEAKS: 19
68.99864959716797       0.017520842982224345
86.14076232910156       0.00932181838948102
91.05675506591797       0.027478534972248794
107.04902648925781      0.058172010466702055
117.69860076904297      0.010494597263933236
119.04901123046875      0.1750628009902939
120.05490112304688      0.010468352185840104
121.03101348876953      0.01951566340782666
121.06803131103516      0.034081871175181765
131.04898071289062      0.14373825439308713
132.05674743652344      0.016646868409202358
147.01905822753906      0.04524365400109796
147.043701171875        1.0
148.04718017578125      0.08397250753261801
189.0535125732422       0.044544792820913906
225.0901641845703       0.3733741888772684
226.09373474121094      0.05964445770725753
309.11126708984375      0.4615176510523623
310.1142883300781       0.09670364655470409


