CHARGE: 1
PRECURSORMZ: 515.300329684
COMPOUNDNAME: challenge77
FORMULA: C30H42O7
SMILES: CC1(C)[C@@H](O)CC[C@]2(C)C3=C([C@@]4(C(C[C@H]([C@]4(CC3=O)C)/C(C)=C/C(CC(C)C(O)=O)=O)=O)C)[C@@H](O)CC12
INCHIKEY: QECQJYAIIIIKJB-BVKBSTOZSA-N
PRECURSORTYPE: [M+H]+
IONMODE: positive
PARENTMASS: 514.2930536839999
NUM PEAKS: 134
53.2520866394043        0.01024919142714303
55.05570602416992       0.019476317348745747
57.253639221191406      0.039448723702824554
57.3653564453125        0.014781001671164593
67.05615234375          0.046233271858424484
69.02611541748047       0.028295277110775133
69.03549194335938       0.46575341942459875
69.071533203125         0.021816636255652274
70.03836822509766       0.011610452868518846
71.05098724365234       0.019474502828359778
79.05619049072266       0.0204189476663844
81.07138061523438       0.022372133439794457
87.04443359375          0.0747663227655666
91.05635833740234       0.021835907938076965
93.07247161865234       0.05810407693038576
95.05146026611328       0.03649751481898831
95.08805847167969       0.09594227922096683
97.06723022460938       0.03385405380176228
105.06996154785156      0.059328678506854964
107.08831787109375      0.03773014282654283
109.0671157836914       0.02420811335095276
109.10405731201172      0.1318157466197482
111.08329010009766      0.029382396210823027
115.0389175415039       0.0808880804520486
119.08565521240234      0.05482412730772265
121.07125854492188      0.016172408894407346
121.1013412475586       0.2796388100802459
122.08211517333984      0.011849524611286324
122.0999755859375       0.029101623056362165
123.08282470703125      0.01849439702150559
129.0709991455078       0.014776238555151418
131.08755493164062      0.012890206314614289
133.1048583984375       0.03181248178534082
135.02650451660156      0.010896121121475697
135.04367065429688      0.05241642805289495
135.08384704589844      0.04567021923712493
135.1191864013672       0.02229537445241421
137.09889221191406      0.02563934018065608
137.13539123535156      0.028073152467497687
139.05307006835938      0.028985756379610584
139.07505798339844      0.5927202206123404
139.1157684326172       0.016454901068181236
140.0823211669922       0.03851899471194932
143.08908081054688      0.024275428584506018
145.10501098632812      0.03565182026086865
147.0843505859375       0.031570534157990306
147.1194610595703       0.02017923997329026
149.09959411621094      0.029743379414163773
151.0800323486328       0.032876387613226074
156.09228515625         0.012422769801643925
157.0905303955078       0.04649967644236486
159.084716796875        0.030029333501831953
159.11895751953125      0.01777191838179648
161.07266235351562      0.017528245223696157
161.09521484375         0.058966104342458095
163.08367919921875      0.015033015979795167
163.11581420898438      0.05092557816696838
165.09095764160156      0.09558842169995521
169.1031494140625       0.01565605412729939
171.085205078125        0.028681212139901918
171.1201629638672       0.023130233979712377
173.0991973876953       0.026570102319502277
175.08106994628906      0.027304190851011104
175.11668395996094      0.03679825637961058
177.0598602294922       0.018480833698668347
183.1201934814453       0.021721801519738092
185.10023498535156      0.04065704668731435
186.07069396972656      0.02391019992437704
187.07879638671875      0.034230176095643876
187.11550903320312      0.03343763005509752
189.0956268310547       0.014389084802105108
189.13221740722656      0.011904409512004104
191.11219787597656      0.021102846043102308
193.09326171875         0.02194360710261274
194.111572265625        0.01619229807808779
195.12701416015625      0.012900315320233504
197.10206604003906      0.023037979943246665
199.1165313720703       0.03344135025598455
201.131103515625        0.029968425522081794
203.11041259765625      0.011890340467576031
207.1210174560547       0.025624895643373016
209.1366729736328       0.017320172261015336
211.11099243164062      0.09930827531035417
212.12396240234375      0.014535683290034884
213.0926971435547       0.019162511675440263
213.13209533691406      0.028142104242164605
220.1271514892578       0.013651881633330889
221.14015197753906      0.01630818971534707
223.11557006835938      0.029585032123782724
225.1302490234375       0.026078241407126005
227.147705078125        0.017277496304282117
229.12173461914062      0.05313937551605307
235.15699768066406      0.015588887571552877
237.12850952148438      0.022099061144579317
249.1301727294922       0.017507412966920374
253.16461181640625      0.02746939034337602
263.14459228515625      0.021449612609447704
269.1978454589844       0.039596450839798236
279.14227294921875      0.01621376302947184
287.2103271484375       0.014647596439414398
289.1846618652344       0.023783817277206763
297.15643310546875      0.012637868604623058
307.14202880859375      0.03068029486077819
323.205078125           0.02946604646880789
325.1393127441406       0.06235129180654969
331.2040100097656       0.02413173202690644
341.2210998535156       0.015158021458083988
343.15167236328125      0.053055968351708435
349.21661376953125      0.03284505240890517
359.22119140625         0.057927764585896234
361.1659851074219       0.01409268636982294
365.2439270019531       0.08140051316372898
366.2586975097656       0.019914673785004094
367.2297058105469       0.03214051711851523
383.26171875            0.02539313407364376
385.2190856933594       0.012727363962367993
405.2497253417969       0.02803278590034661
415.2703857421875       0.016335276207161343
419.2640380859375       0.029257328873884686
433.2846984863281       0.042162178324604185
437.2796936035156       0.018114020588920043
443.25897216796875      0.058848130130664915
444.2763977050781       0.019491671316700727
451.28997802734375      0.020590680300330386
461.267822265625        0.17703973275257567
462.2829284667969       0.05010710792607508
479.2785949707031       0.22272124716205538
480.2817077636719       0.0724292335313088
497.288330078125        0.23460481030917066
498.2955322265625       0.0809279738547928
515.0504760742188       0.01546345450891473
515.2996826171875       1.0
516.3042602539062       0.341308506388223
517.3212890625          0.04419332118976418


