CHARGE: 1
PRECURSORMZ: 629.3108943679999
COMPOUNDNAME: challenge185
FORMULA: C38H44O8
SMILES: O=C(O)/C(C)=C\C[C@@]1(C2=O)OC(C)(C)[C@@](C[C@@]2([H])C=C34)([H])[C@]31OC5=C(C(O)=C(C=C[C@](CC/C=C(C)/C)(C)O6)C6=C5C/C=C(C)\C)C4=O
INCHIKEY: GEZHEQNLKAOMCA-RRZNCOCZSA-N
PRECURSORTYPE: [M+H]+
IONMODE: positive
PARENTMASS: 628.3036183679999
NUM PEAKS: 36
59.717350006103516      0.05096620094169705
63.69263458251953       0.044045114069365815
63.81336975097656       0.044668798252333664
69.07183074951172       0.11372576452327773
79.35498809814453       0.041497560536024866
81.07186126708984       0.11706917907893616
93.07209014892578       0.0674377852394776
107.08818054199219      0.08562727507707112
109.03166198730469      0.04859780062874412
109.10462188720703      0.051776449029514136
110.6733627319336       0.0574614257816801
123.12130737304688      0.05144612763323671
136.04185485839844      0.05320395544472622
185.06405639648438      0.07514282343322165
213.09706115722656      0.1406028581716232
219.5831298828125       0.10959667672488926
227.1126708984375       0.08670466564704457
229.12603759765625      0.06253720940452132
237.09506225585938      0.06576325193092525
255.10897827148438      0.12803980587835923
285.0472717285156       0.04906922170184108
299.1397705078125       0.13412831167982103
337.0830383300781       0.06658336360000004
379.1294860839844       0.09134349720788165
391.12786865234375      0.09736767716716918
447.1983947753906       0.15029801533856924
487.19317626953125      0.21458763293721925
488.1934509277344       0.05451926477005995
527.2638549804688       0.1058374197003556
545.2742919921875       0.1840465843393758
573.2461547851562       1.0
574.2495727539062       0.38252055711023947
575.2821044921875       0.07065737438403541
601.3313598632812       0.08149470061740086
629.305419921875        0.3175357971231937
630.3323974609375       0.1113576119467843


