CHARGE: 1
PRECURSORMZ: 200.070604528
COMPOUNDNAME: challenge168
FORMULA: C12H9NO2
SMILES: COC1=C2C(OC=C2)=NC3=CC=CC=C13
INCHIKEY: WIONIXOBNMDJFJ-UHFFFAOYSA-N
PRECURSORTYPE: [M+H]+
IONMODE: positive
PARENTMASS: 199.063328528
NUM PEAKS: 24
50.0159912109375        0.006356108085506059
54.11007308959961       0.002346544065422637
54.68742370605469       0.0023922557554313193
56.9661979675293        0.0020690682307414002
59.969871520996094      0.00235055671959918
91.1719970703125        0.002186099809948358
128.9326934814453       0.0024746096151145266
128.9539031982422       0.007457735456798792
129.06088256835938      0.007680258656839083
135.51145935058594      0.0024527860064922245
144.08326721191406      0.003522560845177682
158.96556091308594      0.0029295734681953735
184.99549865722656      0.007514312705723619
185.01161193847656      0.009302087371194012
185.04685974121094      0.2340510833948155
186.05032348632812      0.02719818034234323
199.9587860107422       0.003481332849574165
199.98709106445312      0.012565945752516346
200.0109405517578       0.026794028730003767
200.03024291992188      0.040769964340082517
200.07009887695312      1.0
200.12039184570312      0.015495520124530515
201.07339477539062      0.12689571533396504
202.08062744140625      0.004149553801773247


