CHARGE: 1
PRECURSORMZ: 175.107718308
COMPOUNDNAME: challenge201
FORMULA: C7H14N2O3
SMILES: OC([C@@H](N)CCC(NCC)=O)=O
INCHIKEY: DATAGRPVKZEWHA-YFKPBYRVSA-N
PRECURSORTYPE: [M+H]+
IONMODE: positive
PARENTMASS: 174.100442308
NUM PEAKS: 44
61.01278305053711       0.025185216069504385
67.98831176757812       0.010579253191446154
67.99590301513672       0.026307034562654416
74.2280502319336        0.007477645861788663
77.0010757446289        0.02782775403097173
84.03424835205078       0.026688964831739263
84.0468978881836        0.3512974295482112
85.02981567382812       0.013530732637775914
85.04977416992188       0.01096342174054231
86.00598907470703       0.013619998670945828
90.4861831665039        0.05134569952773767
97.9976577758789        0.16108593021683795
98.49727630615234       0.01345287922568198
99.47514343261719       0.012483969892918658
99.4910888671875        0.215904087671049
102.05708312988281      0.01189430191381894
106.97698211669922      0.034772315334405855
106.98521423339844      0.0645516379972965
107.00303649902344      1.0
107.50401306152344      0.048897907569144666
107.99868774414062      0.0484230734101261
108.4966812133789       0.1424340754807429
111.09465789794922      0.011341315657087625
115.98789978027344      0.03758852892771261
116.00850677490234      0.6081089275257416
116.5099105834961       0.026590280890927746
117.00720977783203      0.03774949738584388
125.0125732421875       0.015231660089246845
129.10585021972656      0.18736803607552613
129.49375915527344      0.04299200651141204
130.0535888671875       0.12388915764470244
130.08834838867188      0.01767924944811836
130.10879516601562      0.014224186793320253
137.0014190673828       0.265377581048946
137.505126953125        0.016323793254087126
138.00323486328125      0.025226168027914334
138.4982147216797       0.014634139881235566
146.00759887695312      0.05839323809843429
158.0536346435547       0.03004317304723901
158.0809326171875       0.5978807401744856
159.08413696289062      0.040502630959983264
175.1071014404297       0.13676202217213215
176.11550903320312      0.011813758096599928
176.9741668701172       0.03536059937864334


