CHARGE: 1
PRECURSORMZ: 343.19038531199993
COMPOUNDNAME: challenge111
FORMULA: C21H26O4
SMILES: O=C(C1=C(O)C=CC=C1O)CCCCCCCCC2=CC=C(O)C=C2
INCHIKEY: KOAPDMKKECXPHX-UHFFFAOYSA-N
PRECURSORTYPE: [M+H]+
IONMODE: positive
PARENTMASS: 342.18310931199994
NUM PEAKS: 30
51.79240417480469       0.02122495325440651
55.77138900756836       0.021091676803297207
66.4079360961914        0.02479067886079728
82.77076721191406       0.02262424851933137
106.64323425292969      0.027723802877085573
107.03450012207031      0.06056715944805716
107.05210876464844      0.9598732521489892
108.05559539794922      0.06852093054790374
111.04594421386719      0.05114357436088255
121.06769561767578      0.08987209206850702
123.04403686523438      0.8523876501356938
124.05095672607422      0.06696581471887271
133.06468200683594      0.22415592169499735
135.04603576660156      0.06011022806543591
137.02291870117188      0.3271092569202424
137.0625    0.025540562806689752
139.03903198242188      0.21843163996997425
147.0455780029297       0.031044625375989822
147.0565948486328       0.0397957886806237
147.08004760742188      0.20399031145489507
149.05966186523438      0.18142190984866569
173.09912109375         0.04066693527432587
215.14915466308594      0.06726369562828982
233.1529541015625       0.41864412077782753
234.1627197265625       0.05161929026534032
324.78594970703125      0.027324192305479097
328.1506042480469       0.025447546030599472
343.1895446777344       1.0
344.1929016113281       0.25149939941730676
345.2074890136719       0.03031070865748596


