CHARGE: 1
PRECURSORMZ: 944.3699253640002
COMPOUNDNAME: challenge79
FORMULA: C50H57NO17
SMILES: CC(O[C@]([C@@]1([H])C[C@@H]2O[C@@](OC[C@@H](O)[C@@H]3O)([H])[C@@H]3O)(CO1)[C@]([C@@H]([C@]4(C(C)(C)C5=C(C)[C@@H](OC([C@H](O)[C@H](C6=CC=CC=C6)NC(C7=CC=CC=C7)=O)=O)C4)O)OC(C8=CC=CC=C8)=O)([H])[C@@]2(C([C@@H]5O)=O)C)=O
INCHIKEY: ORKLEZFXASNLFJ-DYLQFHMVSA-N
PRECURSORTYPE: [M+H]+
IONMODE: positive
PARENTMASS: 943.3626493640002
NUM PEAKS: 58
69.03530883789062       0.008980416656341085
70.06729125976562       0.024232238392724884
72.08229064941406       0.014474617326641985
74.06331634521484       0.009652024978690789
77.04045867919922       0.01824579944384492
79.05488586425781       0.04419641921579711
84.04607391357422       0.013604759705322909
84.08322143554688       0.02630556371420373
86.0979232788086        0.019597478666285993
91.0430679321289        0.013522092385282656
91.05680084228516       0.15741436454006966
92.0600357055664        0.012148537704415638
93.07166290283203       0.019406497323410044
95.04939270019531       0.05291164169416459
95.08773040771484       0.009995838832120546
99.25847625732422       0.008871870432424201
103.05715942382812      0.012840305189264125
105.01153564453125      0.034297578805834734
105.01904296875         0.06147886306302674
105.03643798828125      1.0
105.07182312011719      0.021448855860485363
106.03700256347656      0.06652895395337767
110.07329559326172      0.016710265521898984
118.0685043334961       0.0324213168769991
119.05274200439453      0.03169845312296186
119.08920288085938      0.011007652242035032
120.08245849609375      0.01699449334077678
121.10388946533203      0.015674190522877093
122.0311508178711       0.014610825360324283
122.0415267944336       0.0251299090968998
122.05994415283203      0.4946994108322748
123.06649780273438      0.041230196696552285
129.10482788085938      0.019516173426582566
131.08827209472656      0.011848586199455812
136.07962036132812      0.028352989588546755
143.08917236328125      0.011826068297287823
145.1060791015625       0.013746579161380036
149.0988006591797       0.011480860614847944
161.09844970703125      0.012819262666620026
181.1043243408203       0.01315625678052058
199.1154022216797       0.014168651004399534
210.09584045410156      0.011246302661561753
240.1023406982422       0.05915771880319086
251.15296936035156      0.010528224864393573
268.1025085449219       0.01993249938225797
281.1610412597656       0.011170946251702327
286.0059814453125       0.014473413367148651
286.037841796875        0.021861322173524433
286.1065979003906       0.7386101397981487
287.10980224609375      0.11360582695876416
299.171630859375        0.013179977397135893
309.1552429199219       0.01893161062857333
327.1675109863281       0.03530528418643355
345.1754455566406       0.014001774997356518
509.20599365234375      0.04239787056892109
510.23968505859375      0.014933806481362916
641.2523803710938       0.01281766029240294
676.2138061523438       0.018735258157202818


