CHARGE: 1
PRECURSORMZ: 247.132870436
COMPOUNDNAME: challenge63
FORMULA: C15H18O3
SMILES: C=C1[C@](CC=C2/C=C/C(C)=O)([H])[C@@](OC1=O)([H])C[C@@H]2C
INCHIKEY: RBRPTFMVULVGIC-MDKNCZOUSA-N
PRECURSORTYPE: [M+H]+
IONMODE: positive
PARENTMASS: 246.125594436
NUM PEAKS: 79
54.734371185302734      0.004414612839179478
55.055789947509766      0.0066131919727686235
56.050838470458984      0.005450352676515909
57.07188415527344       0.042553257065609786
58.06707000732422       0.005606728939050322
61.55747985839844       0.010287160127531645
61.56400680541992       0.006669837224633054
70.06742095947266       0.05560887730450841
71.04304504394531       0.006692462303053897
71.0515365600586        0.018167273936055148
71.08744049072266       0.010478510142965036
74.05204010009766       0.00801988977224512
74.06236267089844       0.025085789607244526
85.10296630859375       0.009414907120738886
88.0784683227539        0.09034128965253775
91.05624389648438       0.01068693485401682
93.07207489013672       0.010669919981450834
95.0396499633789        0.005650631880751771
95.0520248413086        0.019501925038824683
102.09463500976562      0.028568874366382942
105.07252502441406      0.016049659919826008
106.08943939208984      0.053970304755666575
107.08989715576172      0.005754123966726667
109.0675048828125       0.011389679840041007
117.07244110107422      0.011227434936065333
119.08898162841797      0.019786171879420923
124.09059143066406      0.1544183641035038
125.0929946899414       0.006202900951900581
128.0629425048828       0.0054269522913358535
128.95314025878906      0.009923587919441914
129.0727081298828       0.006482353573076816
131.08920288085938      0.020636988491844192
133.06912231445312      0.00510350759211008
133.1051483154297       0.004916088250335181
139.67779541015625      0.0050332071303029165
142.08045959472656      0.007999883148828192
143.0858154296875       0.02283673238026373
145.068359375           0.007607469648941865
145.1026153564453       0.008353030591805241
147.0830078125          0.009216220406158134
148.08966064453125      0.008636156946629874
154.0819854736328       0.006947735642907719
155.0890350341797       0.009426487667224096
157.1062469482422       0.016858070363319086
159.08522033691406      0.015338187946916488
159.12176513671875      0.017627677182098
162.729736328125        0.004684886211194174
165.0945281982422       0.007078134941394849
168.0980224609375       0.01213685181770574
169.10498046875         0.007822730938422878
175.11524963378906      0.007971820154943429
176.97727966308594      0.019689075475979007
177.9739990234375       0.004701288794818761
183.1171417236328       0.03817517397692243
184.1266326904297       0.006316166928177955
184.21141052246094      0.03986345469647142
187.08096313476562      0.009205730433918327
187.11195373535156      0.02949327213680745
189.0927276611328       0.007893162412714816
201.12722778320312      0.030740522956469417
201.95289611816406      0.0049795467496384005
202.22314453125         0.005571045086519257
204.97119140625         0.008750833550483037
205.12786865234375      0.005445620673070407
227.22793579101562      0.006875518450501392
228.2317352294922       0.04530501697366645
229.1230010986328       0.026910352026023966
229.24444580078125      0.00603136851903851
245.2345428466797       0.007717509966233381
246.12786865234375      0.009229558553923102
246.16094970703125      0.025994657313263825
246.18740844726562      0.04389250377526533
246.2423858642578       1.0
247.1305694580078       0.06176887615437433
247.19134521484375      0.01138709309125487
247.24546813964844      0.15977978263384837
248.13792419433594      0.007783629394907724
248.25758361816406      0.014200378615791433
249.13650512695312      0.004516350614142499


