CHARGE: 1
PRECURSORMZ: 301.070664104
COMPOUNDNAME: challenge198
FORMULA: C16H12O6
SMILES: O=C1C(C2=CC=C(O)C=C2)=COC3=CC(O)=C(OC)C(O)=C13
INCHIKEY: OBBCRPUNCUPUOS-UHFFFAOYSA-N
PRECURSORTYPE: [M+H]+
IONMODE: positive
PARENTMASS: 300.063388104
NUM PEAKS: 22
58.20458984375          0.007197837927274965
73.35596466064453       0.014823779424322425
75.26448059082031       0.008071952130489496
146.28143310546875      0.008693003193041672
168.00430297851562      0.049806952410561336
169.01585388183594      0.00861213562907635
186.0201873779297       0.011345739601509773
192.3823699951172       0.009225366329518057
239.9130859375          0.008119897634934033
240.04754638671875      0.008905465558288311
241.05111694335938      0.011845168253358747
257.0554504394531       0.0123798792379832
258.0579528808594       0.022868257656044548
285.0386047363281       0.08007179254440801
285.9804992675781       0.02236447425282526
286.0463562011719       0.7000588007733991
287.0505065917969       0.10314479011342893
288.0602111816406       0.012090789749160596
300.9581604003906       0.0300020918710714
301.070068359375        1.0
302.0731201171875       0.16244330731989154
303.0838317871094       0.01657384376450656


