CHARGE: 1
PRECURSORMZ: 1125.6051298240004
COMPOUNDNAME: challenge143
FORMULA: C54H92O24
SMILES: CC(O)(C)[C@H](O[C@@H]1O[C@H](CO)[C@@H](O)[C@H](O)[C@H]1O[C@@H]2O[C@H](CO)[C@@H](O)[C@H](O)[C@H]2O)CC[C@@H](C)[C@H]3CC[C@@]4(C)[C@@]5([H])CC=C6C(C)(C)[C@@H](O[C@H]7[C@H](O)[C@@H](O)[C@H](O)[C@@H](CO[C@H]8[C@H](O)[C@@H](O)[C@H](O)[C@@H](CO)O8)O7)CC[C@@]6([H])[C@]5(C)[C@H](O)C[C@@]43C
INCHIKEY: WRPAFPPCKSYACJ-KGFBLRRZSA-N
PRECURSORTYPE: [M+H]+
IONMODE: positive
PARENTMASS: 1124.5978538240004
NUM PEAKS: 78
79.05719757080078       0.03430741535622112
81.03591918945312       0.046848151028819014
81.07252502441406       0.15641506423856077
83.08712768554688       0.04578743312928115
85.01835632324219       0.08432249767588593
85.03121185302734       1.0
86.03323364257812       0.02655844193981899
91.04084777832031       0.0510495243357157
93.07215881347656       0.06725065726041728
95.08847045898438       0.20755472815176956
97.03131103515625       0.22926857888874985
97.1033935546875        0.03561631768397898
99.04682159423828       0.05557283808248483
105.0732650756836       0.08086690623380371
107.08885192871094      0.14198931578753066
109.0320053100586       0.11424850778452358
109.10453033447266      0.22932933367565772
115.03976440429688      0.03048012035950293
119.08921813964844      0.21644295121014545
121.10494995117188      0.1963621981348595
123.12104034423828      0.12093291275139147
127.04301452636719      0.2879598905137311
127.09680938720703      0.0471737397524429
127.1158447265625       0.129658296499901
131.08949279785156      0.048943711731226455
133.10536193847656      0.16658321311227042
135.11668395996094      0.1629719515750038
137.13600158691406      0.05080071438040485
145.0538787841797       0.5375330038581013
145.1055145263672       0.12117360209153485
147.12159729003906      0.1788652240378839
149.13711547851562      0.09256381335218515
159.11680603027344      0.19291529664996757
161.132568359375        0.1879901735162707
163.06031799316406      0.24581214482047387
163.15084838867188      0.05864594030970288
171.12283325195312      0.06122533310703486
173.13803100585938      0.17517356541392243
175.14801025390625      0.13117855956228505
177.16883850097656      0.044733161529883145
185.1356201171875       0.058822975713427504
187.14892578125         0.1529718335114475
189.16978454589844      0.2217956202376038
190.1715087890625       0.03632848214974918
191.1855010986328       0.0897776857241623
199.15357971191406      0.03718503849471243
201.1706085205078       0.09516402084439056
203.18531799316406      0.12338917409927695
207.1795654296875       0.06827802744923747
213.1697235107422       0.04270309388845499
215.18643188476562      0.08169311140501145
219.4259796142578       0.04299427113073963
227.18423461914062      0.049590349424976546
250.427001953125        0.029857692811571523
255.220703125           0.03326024929509464
283.24481201171875      0.035142748728149854
289.0982360839844       0.07115459805412082
325.11181640625         0.8446036085017268
326.12298583984375      0.06372299161305263
382.3485107421875       0.03143772180366594
405.36474609375         0.12639364439304784
406.3594055175781       0.03029076357035701
423.3608093261719       0.9541945764119323
424.36541748046875      0.2727270847626815
441.2399597167969       0.0357602450999429
441.37127685546875      0.9312977977610835
442.37420654296875      0.2348418979154171
459.383056640625        0.504713972156658
460.4029541015625       0.11802244382212365
487.1780700683594       0.07887212656077625
577.5535278320312       0.02946941840753478
585.436279296875        0.06682954642978203
603.4265747070312       0.39800561287331454
604.4576416015625       0.1210024923396529
621.4335327148438       0.23027355745512026
622.4620361328125       0.08190954377844613
765.4931640625          0.06957743824616767
909.49169921875         0.030435524398163532


