CHARGE: 1
PRECURSORMZ: 419.0972727759999
COMPOUNDNAME: challenge146
FORMULA: C20H18O10
SMILES: O=C1C(O[C@@H]2O[C@@H](CO)[C@H](O)[C@H]2O)=C(C3=CC=C(O)C=C3)OC4=CC(O)=CC(O)=C41
INCHIKEY: POQICXMTUPVZMX-UXYNSRGZSA-N
PRECURSORTYPE: [M+H]+
IONMODE: positive
PARENTMASS: 418.0899967759999
NUM PEAKS: 12
55.01913833618164       0.021483203476372257
57.03495407104492       0.02416247716470556
73.02992248535156       0.018861084192742482
85.02958679199219       0.013761631015520182
102.81074523925781      0.010647459083506597
133.05215454101562      0.03284627177713969
153.02130126953125      0.016841185739222893
186.99034118652344      0.01066849476156391
286.95330810546875      0.018150677694097832
286.9841003417969       0.028117150706862576
287.0545349121094       1.0
288.05743408203125      0.1577220512500885


