CHARGE: 1
PRECURSORMZ: 282.14885484800004
COMPOUNDNAME: challenge158
FORMULA: C18H19NO2
SMILES: OC1=C(OC)C=C2CCN(C)[C@@]3([H])CC4=CC=CC=C4C1=C23
INCHIKEY: YXVXMURDCBMPRH-AWEZNQCLSA-N
PRECURSORTYPE: [M+H]+
IONMODE: positive
PARENTMASS: 281.14157884800005
NUM PEAKS: 26
62.77973175048828       0.007108242969333135
165.0692901611328       0.0090828257553654
178.07644653320312      0.009113904155835295
180.0932159423828       0.008631399788167434
190.0784149169922       0.021184459279331654
191.08506774902344      0.24390732589021863
191.12429809570312      0.013985598685674127
192.0891876220703       0.05075220538526868
194.07215881347656      0.016745771666483125
195.07945251464844      0.022383280547043093
201.06942749023438      0.02172129253893883
208.08755493164062      0.031129541809565425
218.0746612548828       0.008642537955682657
219.07948303222656      0.45309370803446464
220.08416748046875      0.0734361686840897
221.09230041503906      0.01583140595232964
229.07704162597656      0.025857944821261476
236.08230590820312      0.08646142709182411
237.08934020996094      0.018732445700969703
251.04412841796875      0.010897954587704324
251.10589599609375      1.0
252.1090850830078       0.18763516420590753
253.11026000976562      0.011219195787100119
282.0752258300781       0.01579534155693219
282.1478271484375       0.43937599674937483
283.15167236328125      0.08526880483114452


