CHARGE: 1
PRECURSORMZ: 342.169984216
COMPOUNDNAME: challenge99
FORMULA: C20H23NO4
SMILES: COC1=C2C3=C(C=C1OC)CCN(C)[C@@]3([H])CC4=CC=C(OC)C(O)=C24
INCHIKEY: QELDJEKNFOQJOY-ZDUSSCGKSA-N
PRECURSORTYPE: [M+H]+
IONMODE: positive
PARENTMASS: 341.162708216
NUM PEAKS: 32
65.39347839355469       0.016633014195051553
74.56949615478516       0.016926777431234073
105.82113647460938      0.018942587810852313
149.76806640625         0.018970544709448825
172.28184509277344      0.019051210061893295
191.09048461914062      0.04311723576280761
208.0903778076172       0.025233496889120008
219.08424377441406      0.03884264821036253
235.08091735839844      0.04066202230485304
236.08197021484375      0.17408786534314896
237.09608459472656      0.052583362967046805
247.08303833007812      0.08156864058937591
248.082275390625        0.20474554853229213
249.0972137451172       0.05388871547562393
250.10118103027344      0.027189675508951957
251.10536193847656      0.09138485727925931
253.0916748046875       0.02685567460787338
263.0751037597656       0.025988034123331054
264.07733154296875      0.2130759294930052
265.084228515625        0.19454605173348738
266.09283447265625      0.02676873850790136
279.10076904296875      0.5195079081476811
280.10614013671875      0.24401564754346258
281.0943908691406       0.09534223663013582
296.1033630371094       0.16304655346399569
297.1139221191406       0.02090691972820951
302.23858642578125      0.020909188215687175
311.1275634765625       0.27871480910106333
312.1417236328125       0.05728782889650964
342.033935546875        0.029112439602846648
342.168701171875        1.0
343.1722717285156       0.24312783814298244


