CHARGE: 1
PRECURSORMZ: 287.09139954799997
COMPOUNDNAME: challenge193
FORMULA: C16H14O5
SMILES: O=C1C=CC2=C(OC[C@H](O)C(C)=C)C3=C(OC=C3)C=C2O1
INCHIKEY: BVMOMQJYQYBMKL-LBPRGKRZSA-N
PRECURSORTYPE: [M+H]+
IONMODE: positive
PARENTMASS: 286.084123548
NUM PEAKS: 22
50.75665283203125       0.011676168462518554
51.43564224243164       0.007603621445436475
57.07174301147461       0.016392458294111185
98.68379211425781       0.008844748293983917
119.05154418945312      0.010309777969259892
131.0488739013672       0.06819182681951087
147.01939392089844      0.010843990680016574
147.04354858398438      0.18618290773866902
148.05015563964844      0.017701308896266397
151.13755798339844      0.010140398984097295
159.0435333251953       0.08010742468758587
160.0507049560547       0.011738260783949567
164.09263610839844      0.007619181904185932
175.04364013671875      0.02693784018387311
202.0287322998047       0.016050480258199176
202.97348022460938      0.029939895840747636
202.99337768554688      0.03938122536193184
203.0332794189453       1.0
204.0366973876953       0.1213026105098227
287.0903015136719       0.6044711597609763
288.09442138671875      0.1048816194296106
302.474853515625        0.011538351570354986


