CHARGE: 1
PRECURSORMZ: 683.400103296
COMPOUNDNAME: challenge195
FORMULA: C36H58O12
SMILES: OCC1([C@@]2([H])[C@@]([C@]3([H])[C@](C)([C@]4(C([C@@]5([H])[C@](C(O)=O)(CCC(C)(C)C5)[C@H](O)C4)=CC3)C)CC2)(C[C@H](O)[C@@H]1O[C@]6([H])O[C@@H]([C@@H](O)[C@H](O)[C@H]6O)CO)C)CO
INCHIKEY: HPVWWHYNAAZHQR-KNSUCORESA-N
PRECURSORTYPE: [M+H]+
IONMODE: positive
PARENTMASS: 682.392827296
NUM PEAKS: 91
50.58940124511719       0.03320719833851697
53.92382049560547       0.04264102270176537
55.92477798461914       0.03832759462946912
67.05633544921875       0.06034115705679018
69.03507232666016       0.04993010813108766
69.07176208496094       0.049684845294122905
79.05659484863281       0.0518458433809251
81.07225036621094       0.0948116405999488
84.0811767578125        0.02052217869889956
85.02897644042969       0.0948437541135132
91.05654907226562       0.04698388066534403
93.07037353515625       0.12324026341356874
95.05167388916016       0.08643889649931519
95.0857162475586        0.3237100937120901
96.71553802490234       0.022201303544786177
97.06654357910156       0.03166310354590161
99.04531860351562       0.024810980039067544
105.07022857666016      0.129965458333001
107.08549499511719      0.1424970598594094
109.06678771972656      0.03159089311729144
109.10421752929688      0.09397648685118035
117.07205963134766      0.021841403935047826
119.08883666992188      0.2636747346647178
120.09046936035156      0.027758721727439567
121.0683364868164       0.034901062492537584
121.10112762451172      0.10747982200897703
123.08323669433594      0.047918946871055336
129.07211303710938      0.03243827308936138
131.08892822265625      0.11887815533261534
133.10069274902344      0.13088970384384066
135.08335876464844      0.031187178501301004
135.11972045898438      0.05655147010627684
137.09947204589844      0.0315160590356123
143.08914184570312      0.06765431262898253
144.0920867919922       0.022962848832666284
145.10130310058594      0.20825956870261944
147.08401489257812      0.03104992396503483
147.11720275878906      0.09378427053119469
149.0978546142578       0.02961760054123414
149.13719177246094      0.03575717173317562
157.1051483154297       0.09162827987367846
159.08804321289062      0.0385193236995991
159.1208038330078       0.12893445263070843
161.10409545898438      0.036423527139637056
161.1365203857422       0.08580051673072078
163.1514434814453       0.04085979464862329
169.10324096679688      0.03164107235627374
171.12112426757812      0.06727011986586326
173.1377716064453       0.1136634424619089
175.11727905273438      0.0453797791789651
175.153076171875        0.0955508511040602
177.13409423828125      0.03048921369747199
177.16615295410156      0.04261072325689438
183.1190643310547       0.03817436579408863
185.1370391845703       0.07431929096240572
187.14744567871094      0.28663544709417077
188.15408325195312      0.03510754024099108
189.13174438476562      0.038050915421041144
189.1682891845703       0.0728349704828535
191.14752197265625      0.042202778937349146
197.1373748779297       0.048832450396615386
199.146728515625        0.09545550755153319
201.1623077392578       0.11172662428562424
203.1424560546875       0.30819818721464776
204.15052795410156      0.026461053549328845
205.16470336914062      0.07661309087140844
213.1707305908203       0.07713370609796343
215.1476593017578       0.04978831842308795
217.16351318359375      0.08619918456262923
225.1670379638672       0.02645899023359388
227.18429565429688      0.04144628980374056
229.15760803222656      0.03964601402931763
371.2802429199219       0.02503765242000062
371.9039306640625       0.024952677919209836
403.3091735839844       0.029565749660439324
421.3200378417969       0.05006342718775035
423.3332824707031       0.03410192400425469
449.3204650878906       0.05946761551554663
450.3169250488281       0.028808355366521935
455.3148498535156       0.7409596861163416
456.31866455078125      0.23702197265967598
467.33123779296875      0.0901591540934715
485.32513427734375      1.0
486.329345703125        0.3139941216978028
487.34552001953125      0.031998751231092984
503.3355407714844       0.896862668643172
504.337890625           0.2548064574608687
505.354736328125        0.024719905544891365
521.3455200195312       0.5352700830447665
522.3505249023438       0.15515777510141843
683.4107666015625       0.06679828209793656


