CHARGE: 1
PRECURSORMZ: 336.08664851599997
COMPOUNDNAME: challenge245
FORMULA: C19H13NO5
SMILES: O=C1N2C(C3=CC(OCO4)=C4C=C3CC2)=CC5=CC=C6C(OCO6)=C15
INCHIKEY: UCAFJBSQKXVPDX-UHFFFAOYSA-N
PRECURSORTYPE: [M+H]+
IONMODE: positive
PARENTMASS: 335.079372516
NUM PEAKS: 28
67.85352325439453       0.008382091227303797
220.84890747070312      0.011281585259094175
232.08204650878906      0.009242827181909071
235.07101440429688      0.009197595335922844
243.72808837890625      0.009814538711995573
250.09483337402344      0.03279887981128904
261.07318115234375      0.009746532126029016
262.0947265625          0.010324467965396905
264.0711975097656       0.012223370541880444
278.0896911621094       0.03679085752035772
280.10504150390625      0.03769974053155395
290.09014892578125      0.03141449160868751
292.05804443359375      0.07366004500514639
293.0770263671875       0.04038653116437159
306.0782165527344       0.06686672435674984
307.08563232421875      0.014934633802676463
308.09130859375         0.3990860076351176
309.0937194824219       0.07268873676904732
319.9755554199219       0.01045544726971447
320.0542907714844       0.296333174590223
321.0550231933594       0.05925805320511047
322.0648193359375       0.011677785091929394
334.0703125 0.08376074833870958
335.0775451660156       0.443188129966369
335.99761962890625      0.030321437945745246
336.0856018066406       1.0
337.0882263183594       0.18655583602824458
338.0997009277344       0.022567188395958216


