CHARGE: 1
PRECURSORMZ: 368.0684116079999
COMPOUNDNAME: challenge246
FORMULA: C20H14ClNO4
SMILES: C[N+]1=CC2=C3C(OCO3)=CC=C2C(C=CC4=C5)=C1C4=CC6=C5OCO6.[Cl-]
INCHIKEY: GIZKAXHWLRYMLE-UHFFFAOYSA-M
PRECURSORTYPE: [M+H]+
IONMODE: positive
PARENTMASS: 367.0611356079999
NUM PEAKS: 35
50.716976165771484      0.011856218993901714
59.94148254394531       0.013501071543370335
78.88008117675781       0.013306249394824481
81.51376342773438       0.012598052101919666
116.05188751220703      0.02304112002369092
140.31031799316406      0.011729591589037662
144.0470733642578       0.02862150487797542
147.04811096191406      0.03700880859671884
149.02767944335938      0.08602448451830653
150.03099060058594      0.017810675074089632
174.05474853515625      0.16111454506512882
175.0636444091797       0.014251398767114062
206.39341735839844      0.014186609449949874
236.07672119140625      0.021651781704014113
248.07052612304688      0.09446538348933825
249.07186889648438      0.01322104749481391
264.0743408203125       0.04006152166375274
266.0877380371094       0.016831820495470443
276.0643310546875       0.3621281480313653
277.06781005859375      0.06326535567902089
278.08135986328125      0.013850123030206257
280.0706787109375       0.04770458986645328
292.07037353515625      0.04301984164873934
293.0711975097656       0.017533325741513697
294.08148193359375      0.021578096643174248
306.0878601074219       0.039369834223458626
307.0645751953125       0.01566770293406586
320.0658264160156       0.030405227125105586
322.0702819824219       0.10172539535498393
350.0641174316406       0.4613592025134121
351.0709228515625       0.08922357940787642
367.9769287109375       0.03437668620656034
368.07568359375         1.0
369.0769958496094       0.19217449093426045
370.0897216796875       0.017704018671603487


