CHARGE: 1
PRECURSORMZ: 195.0651848
COMPOUNDNAME: challenge150
FORMULA: C10H10O4
SMILES: O=C(O)/C=C/C1=CC=C(O)C(OC)=C1
INCHIKEY: KSEBMYQBYZTDHS-HWKANZROSA-N
PRECURSORTYPE: [M+H]+
IONMODE: positive
PARENTMASS: 194.0579088
NUM PEAKS: 45
52.725257873535156      0.008396109571601714
55.935935974121094      0.012060154887690943
61.012168884277344      0.01726106890804754
72.93946075439453       0.04041718817025549
79.02381134033203       0.011172301918716184
82.93519592285156       0.01953698007974797
83.93148040771484       0.021604449668430822
84.93929290771484       0.011707804556220771
85.94781494140625       0.011232387243843707
89.04150390625          0.03972299980234917
90.9502944946289        0.02120923800292732
105.91902923583984      0.014681943770407494
107.05194854736328      0.01212743920121701
111.97054290771484      0.011723840200919815
113.94640350341797      0.018708235741733362
113.96705627441406      0.11690281861251633
117.03691864013672      0.1833564878526641
117.9184341430664       0.011572272595108664
118.9283218383789       0.04184845788246112
125.9670181274414       0.014964564888697199
131.95489501953125      0.023150747092705624
131.97808837890625      0.027220082517423604
133.0319061279297       0.03190723009185364
134.03924560546875      0.03016218349089897
135.04383850097656      0.05953836514317715
141.9741668701172       0.035429938831746756
145.00477600097656      0.03404755586201236
145.03273010253906      0.48443445669691615
146.03622436523438      0.04527608766012553
149.05953979492188      0.10264064801032392
150.06640625            0.009784878672673835
151.04107666015625      0.014993893840260323
155.98130798339844      0.01177665622129405
163.0380859375          0.053775287336251774
170.97836303710938      0.06065292436831387
172.97938537597656      0.017092558576561168
177.0214385986328       0.05459966502863687
177.05410766601562      1.0
178.02793884277344      0.010302699559614858
178.0574951171875       0.09195817052190801
179.03875732421875      0.036576942022961696
193.04859924316406      0.07938986465238024
194.05592346191406      0.1300497043247911
194.11636352539062      0.06442687625635637
195.06753540039062      0.02036342788561669


