CHARGE: 1
PRECURSORMZ: 631.2749027840001
COMPOUNDNAME: challenge78
FORMULA: C33H42O12
SMILES: O[C@@H](C1)[C@]2(C)[C@]([C@@]3(OC(C)=O)[C@]1([H])OC3)([H])[C@H](OC(C4=CC=CC=C4)=O)[C@]5(O)C[C@H](OC(C)=O)C(C)=C(C(C)5C)[C@@H](OC(C)=O)[C@@H]2O
INCHIKEY: WPPPFZJNKLMYBW-FAEUQDRCSA-N
PRECURSORTYPE: [M+H]+
IONMODE: positive
PARENTMASS: 630.2676267840001
NUM PEAKS: 128
52.29140853881836       0.0355440797594629
53.04036331176758       0.04588596864002624
55.055572509765625      0.03802263006388078
67.0561294555664        0.0525369324517746
69.03524017333984       0.051581930373545706
69.07140350341797       0.0492156586161369
77.0408935546875        0.049820449948814176
79.05609893798828       0.06955902096490628
81.06240844726562       0.031200851701156374
81.07174682617188       0.07937631090735728
83.05070495605469       0.04315890313158396
91.05662536621094       0.09179147277873227
93.07270050048828       0.12740981133918558
95.05213928222656       0.14294041632446342
95.08794403076172       0.08802923731647787
97.03121948242188       0.1293589600499481
105.03665161132812      1.0
105.07279968261719      0.1606697609948508
106.03865814208984      0.07196245123910107
107.05204010009766      0.05538541902253216
107.08854675292969      0.14334877996489273
109.06759643554688      0.07465200577039523
109.10304260253906      0.051143350153027865
117.07300567626953      0.07426223977759518
119.08955383300781      0.1085389241776971
121.06784057617188      0.07487531239634601
121.10501861572266      0.09648958551347946
123.04732513427734      0.05845422703321694
123.08405303955078      0.1013085277901081
129.07254028320312      0.0753602059084469
131.06915283203125      0.03594600410231987
131.089111328125        0.12958627552940896
131.5462646484375       0.03327637737341291
133.06890869140625      0.1690776876089501
133.1050567626953       0.15289029266052725
135.04798889160156      0.06517734407840112
135.08433532714844      0.09434888838782987
135.11892700195312      0.045526112740043284
137.09927368164062      0.06463315753877284
142.08006286621094      0.03429333585355773
143.08984375            0.13841534017341
145.0704345703125       0.04403097588391419
145.0772247314453       0.04241226029507908
145.10511779785156      0.13911198574132946
147.0847930908203       0.07095320704357769
149.0635223388672       0.0655150440135337
149.09910583496094      0.06833028284508849
151.1139373779297       0.034128589750555646
155.0624237060547       0.04082827584384037
155.0897216796875       0.09483482395665357
157.0524139404297       0.059948481206004364
157.10609436035156      0.10378173908625797
159.08445739746094      0.09874259183486525
159.11875915527344      0.04284631676347087
161.10096740722656      0.10783307173214444
163.07931518554688      0.051308304667374516
163.1157684326172       0.03989058723157354
165.0736083984375       0.0414734744583806
169.10450744628906      0.06717440287943076
171.0848388671875       0.07491663301027777
171.1184539794922       0.07389978793042337
173.1014404296875       0.06195065221472116
175.08140563964844      0.04574519903626671
177.0951385498047       0.043978149737813624
179.0871124267578       0.04769891134250055
180.0995635986328       0.047403227747405845
181.10577392578125      0.1184978234990313
183.1190643310547       0.07905798709752336
185.0994873046875       0.06565006391608152
185.13604736328125      0.053871837762409495
189.13230895996094      0.05321941217800938
192.0966339111328       0.047876719933010216
193.1037139892578       0.0816391983783734
194.11404418945312      0.040996856102607816
195.11753845214844      0.16101243828327114
197.09974670410156      0.04888489755282909
197.13525390625         0.05514204361004933
199.1160125732422       0.06683607158051906
206.11338806152344      0.04984511604441741
207.1242218017578       0.12761518233001334
208.1292724609375       0.09459288903434639
209.09768676757812      0.05530352562361088
209.13731384277344      0.051815663696469914
213.13064575195312      0.06086786333354975
217.1048583984375       0.045529275688684256
219.12033081054688      0.0362896621500087
221.13742065429688      0.0653729810334888
223.1129913330078       0.05971643356307292
223.1557159423828       0.05132704942889407
225.1330108642578       0.09459586196087909
227.15200805664062      0.04109290308372291
232.13194274902344      0.09402260203868468
233.13540649414062      0.05570948027408691
237.1700439453125       0.06306128239962762
241.1678924560547       0.04673890126225679
247.1565704345703       0.12535179834961754
249.134765625           0.06045658806404201
250.141357421875        0.06328460128506926
251.1508331298828       0.09457742368663094
253.125244140625        0.06995365397557635
255.18003845214844      0.035949023001943275
265.1592712402344       0.18427089914636674
269.1629333496094       0.13295039015584462
271.1394958496094       0.05045289562799095
275.15118408203125      0.08699110976049662
281.15911865234375      0.045003818586211976
283.1694641113281       0.21051620106428073
287.16357421875         0.5299790156746907
288.1764831542969       0.1010057061064622
293.152099609375        0.3426431825167499
293.3983459472656       0.032952953615382696
294.1631164550781       0.07321068807912609
301.1920166015625       0.04229970284465303
311.1629943847656       0.7129565753141716
312.1761779785156       0.12619228452375605
329.17333984375         0.41889606325191137
330.1895751953125       0.09333631574053895
347.1935729980469       0.044015510536198746
353.18914794921875      0.07656468249585972
356.0916442871094       0.03315316949030529
371.1999816894531       0.16797517933673606
389.1974792480469       0.23911975090283794
390.210205078125        0.06482460174798763
449.2155456542969       0.4352782247315711
450.2329406738281       0.10671353502713074
493.2340393066406       0.03470331774678012
631.2732543945312       0.26308109741469893
632.3027954101562       0.09788715521162726


