CHARGE: 1
PRECURSORMZ: 369.13326435999994
COMPOUNDNAME: challenge89
FORMULA: C21H20O6
SMILES: O=C1C(C2=CC=C(O)C=C2O)=CC3=C(OC)C(C/C=C(C)\C)=C(O)C=C3O1
INCHIKEY: NZYSZZDSYIBYLC-UHFFFAOYSA-N
PRECURSORTYPE: [M+H]+
IONMODE: positive
PARENTMASS: 368.12598835999995
NUM PEAKS: 58
60.31920623779297       0.005312391580848148
69.93534851074219       0.005004617221108583
73.0488052368164        0.007597943777320002
79.65023040771484       0.004904998834866343
83.9240493774414        0.004925576478571936
92.41012573242188       0.010023142819181652
104.22325134277344      0.006234053180555002
107.08969116210938      0.005733273780854385
119.03290557861328      0.006099663513514684
119.61196899414062      0.00629904037816167
136.55580139160156      0.00598866314664918
225.0611114501953       0.009411604660837822
225.53636169433594      0.0066603109943138014
234.76181030273438      0.007482427976115193
255.06906127929688      0.010745081722864513
257.0905456542969       0.009714672736045683
267.0714111328125       0.010232241538487527
268.0401916503906       0.018777053353159375
268.0896911621094       0.008833759005963405
269.0404968261719       0.031271949125673305
270.0578918457031       0.020306247964264616
271.0662536621094       0.019713394175111358
281.039794921875        0.026193609588400293
283.0626220703125       0.03416406045614333
284.0735778808594       0.008202734501556688
285.0738830566406       0.0460937648890221
286.09027099609375      0.02016704102180056
293.0858459472656       0.007649894282528886
295.0657958984375       0.01366076711273816
296.0727233886719       0.006247482401717294
297.0433044433594       0.009151986812766053
298.0469055175781       0.06630966220652926
299.0547790527344       0.042160355959160546
307.1021423339844       0.010760623154844098
310.9774169921875       0.012191291015736667
311.05157470703125      0.07840082048798742
312.0659484863281       0.01794913168305939
313.0707702636719       0.12171067392370237
314.08599853515625      0.018715661854390345
319.108642578125        0.009989815096753738
321.0742492675781       0.04133179812175257
322.091064453125        0.009556572301307895
325.0803527832031       0.015751318463513558
335.1048583984375       0.007255419116768049
336.1059875488281       0.025368616995012014
337.1118469238281       0.010138818338987192
339.0869140625          0.036326823564113535
351.1218566894531       0.11209560333132935
352.1276550292969       0.02709331258760159
355.0757751464844       0.009054771650045826
368.91766357421875      0.010169946546786397
368.98370361328125      0.0229671151853732
369.0333557128906       0.03923711574411759
369.1322326660156       1.0
369.27435302734375      0.011716401595150272
369.3153991699219       0.017293321694268927
370.1353454589844       0.21100789258940345
371.1487121582031       0.018577924864472


