CHARGE: 1
PRECURSORMZ: 339.15908518399993
COMPOUNDNAME: challenge124
FORMULA: C21H22O4
SMILES: O=C1C=CC2=CC3=C(OC=C3)C(OC/C=C(C)/CC/C=C(C)/C)=C2O1
INCHIKEY: SOVNCTNQAWWYAQ-OQLLNIDSSA-N
PRECURSORTYPE: [M+H]+
IONMODE: positive
PARENTMASS: 338.15180918399994
NUM PEAKS: 32
57.065948486328125      0.030454926389805917
57.071495056152344      0.07022592387686712
67.05613708496094       0.0840940113601615
69.07169342041016       0.04615319052477817
70.60433959960938       0.03089887549858873
81.06073760986328       0.04778511933486654
81.07220458984375       0.6231857136030508
95.08826446533203       0.6800150134688225
96.09071350097656       0.06569057946336047
109.1034927368164       0.05011578467585198
131.05123901367188      0.04276054226733442
137.13629150390625      1.0
138.13926696777344      0.13441671989358656
147.0487060546875       0.08811660498177049
175.0426483154297       0.05400163026371611
192.9821014404297       0.044253802051048036
202.9939422607422       0.055386557280578896
203.03318786621094      0.8960592673059281
204.04335021972656      0.08238595445346106
220.9824981689453       0.053736214283839366
229.0559539794922       0.09789792787432659
243.07164001464844      0.07976846878771175
248.9744415283203       0.08207565805635704
276.9720764160156       0.04247676468272157
294.9848327636719       0.03937468408785437
299.98651123046875      0.048213952895802444
302.61468505859375      0.03165222360645866
315.9973449707031       0.031958678018302884
318.0004577636719       0.11773324944905371
339.1687927246094       0.03534813280077248
340.01910400390625      0.02640087476115191
341.2757568359375       0.04206270663991523


