CHARGE: 1
PRECURSORMZ: 425.19586461599994
COMPOUNDNAME: challenge56
FORMULA: C25H28O6
SMILES: C1(=O)C2=C(C=C(O)C(OC)=C2C/C=C(/C)\C)OC2=C1C(O)=C(C/C=C(/C)\C)C(OC)=C2
INCHIKEY: YRKKJHJIWCRNCW-UHFFFAOYSA-N
PRECURSORTYPE: [M+H]+
IONMODE: positive
PARENTMASS: 424.18858861599995
NUM PEAKS: 87
51.85749053955078       0.008623228743496173
55.0560417175293        0.02256974776881009
57.07147216796875       0.010724293444835194
67.05663299560547       0.040432811984568606
69.07234191894531       0.06679628191442558
79.05706787109375       0.020955358368188792
81.07250213623047       0.12768479216900955
83.08833312988281       0.03290974000803145
91.05679321289062       0.01553750396503096
93.0727767944336        0.07073710853466578
95.08866882324219       0.19436823930537003
97.10372924804688       0.014303857680916758
105.07322692871094      0.06768889479921916
107.07123565673828      0.02307854814597687
107.08907318115234      0.1328882389939612
109.10477447509766      0.21430442403308464
110.10587310791016      0.013458397433158449
119.0893783569336       0.08338073680233107
121.08390045166016      0.020505718029538936
121.1048812866211       0.1138248250226405
122.10774230957031      0.015409136936327396
123.1207275390625       0.1197957950212971
131.08883666992188      0.012879795990104442
133.10533142089844      0.08574445085769594
135.12109375            0.14088075241803522
136.1239013671875       0.013934832000370793
137.1326446533203       0.04320957272989304
145.10597229003906      0.03120265782452692
147.1216583251953       0.11536715869864425
148.12551879882812      0.010644702152848866
149.1329803466797       0.07067027218941768
150.13922119140625      0.01027071806190192
159.122314453125        0.03383597757747833
161.13763427734375      0.07622951378038363
162.13909912109375      0.013825496611075364
163.14813232421875      0.06956397876191818
165.16737365722656      0.010647954717309588
171.12110900878906      0.011024702674730224
173.13775634765625      0.038215045355246856
175.1536865234375       0.04712417515135012
177.1690673828125       0.02162878277985243
179.14700317382812      0.01354416216180006
187.15353393554688      0.03943882432486748
189.1637725830078       0.04958740820229117
191.18634033203125      0.032340530618910554
192.184326171875        0.009803325468299125
201.17079162597656      0.03522716425059285
203.1792449951172       0.08248828233772432
204.1892852783203       0.012449136370088387
205.20079040527344      0.025673114360726567
207.1741943359375       0.058807695047839274
213.17071533203125      0.011036815453925436
215.1874542236328       0.02721526132722441
217.19610595703125      0.08721925227120232
218.20529174804688      0.013918726891021034
220.08702087402344      0.013276112376762673
227.18634033203125      0.012782602376556275
229.20272827148438      0.028397884995453794
243.21536254882812      0.021648641881843525
245.2340087890625       0.013508243213369723
247.20718383789062      0.010613136930624269
255.21543884277344      0.01030377908187264
257.23193359375         0.01529780149217332
261.22796630859375      0.018527665188802462
269.23114013671875      0.013136624816730474
271.24188232421875      0.04342787857626782
273.26666259765625      0.011753952521424747
283.06671142578125      0.013518407565713599
285.0837097167969       0.014763460103279098
285.26690673828125      0.02798320035391975
297.26373291015625      0.015630284444803327
298.0548400878906       0.02162400047046269
299.0635070800781       0.016567594453736418
311.0654296875          0.031379352911473354
313.0823669433594       0.03625031819826096
323.2776184082031       0.010581428847338342
351.13568115234375      0.033141355979031326
369.1325988769531       0.3990808189183033
370.1349182128906       0.07704273552012335
407.36700439453125      0.10542199199896583
408.38653564453125      0.03621826074188445
425.099609375           0.015961317569830713
425.1971740722656       0.13700013678451559
425.3771667480469       1.0
426.2070007324219       0.031426910085771406
426.3794250488281       0.2979278096408551
427.3986511230469       0.023959930171097422


