CHARGE: 1
PRECURSORMZ: 305.21112075599996
COMPOUNDNAME: challenge141
FORMULA: C19H28O3
SMILES: CCCCCCC/C=C/C(CCC1=CC=C(O)C(OC)=C1)=O
INCHIKEY: LGZSMXJRMTYABD-MDZDMXLPSA-N
PRECURSORTYPE: [M+H]+
IONMODE: positive
PARENTMASS: 304.20384475599997
NUM PEAKS: 175
55.0561408996582        0.004242480409515813
55.936614990234375      0.0019242500031472843
57.02976989746094       0.0017666718864526175
57.03538513183594       0.0031884654148566114
57.072105407714844      0.010034255986678517
57.9371337890625        0.0052908542939007035
67.04878997802734       0.003446292385240434
67.05668640136719       0.008096752865297895
69.03533935546875       0.0019921946720519506
69.07234191894531       0.008478590968377124
70.06753540039062       0.0021018997467200378
71.08757781982422       0.0023474700769688427
72.93970489501953       0.0026403389160758405
76.26786804199219       0.018869901814058346
76.5191879272461        0.002989747363935781
79.05634307861328       0.002162362127905526
81.07259368896484       0.005546481281870462
83.08772277832031       0.002420594043999085
85.06712341308594       0.003797638339459701
88.07827758789062       0.00319863823391559
91.05702209472656       0.003251083459060645
93.07295227050781       0.006510046461426782
95.05238342285156       0.014796707329405799
95.08883666992188       0.011137675369783875
97.06727600097656       0.0034477862929012397
105.07349395751953      0.004847177075171549
107.05221557617188      0.002980427541461778
107.0892333984375       0.009298584781567597
109.06888580322266      0.002323782270736795
109.10525512695312      0.005657990904711321
113.06208038330078      0.002847816017575782
113.09999084472656      0.00473546629489167
113.87228393554688      0.003052457891992563
119.08943176269531      0.011442919843567283
121.06869506835938      0.005373362032852363
121.10545349121094      0.014767913888335704
123.04756164550781      0.002473572316120374
123.08495330810547      0.0039235446828356085
123.12030792236328      0.004563864428647985
126.06427764892578      0.0018360932614262218
131.0879669189453       0.003288817478096974
133.10572814941406      0.018443692508313493
134.10723876953125      0.0035072216378663826
135.08438110351562      0.008347234755954143
135.11961364746094      0.004021218154664643
137.0019989013672       0.004991826677790007
137.0279083251953       0.04900495048376478
137.0632781982422       0.005121101295225308
137.09976196289062      0.0023635448633835166
138.02947998046875      0.0020866793734920235
141.07302856445312      0.004890253503898695
142.0801544189453       0.002115668912709412
143.0902557373047       0.0031860003255561133
145.0684051513672       0.0035091607631990624
145.10601806640625      0.006385622288154876
147.03143310546875      0.0030002868804590486
147.0826416015625       0.0041733032971467314
147.1215057373047       0.0028746808566399874
149.10011291503906      0.0023584276933603337
149.1353302001953       0.0026259130540204523
151.08010864257812      0.0026406742459314293
151.11695861816406      0.0019496051495604993
157.10598754882812      0.004772153445284089
158.1115264892578       0.0019165102986650957
159.04989624023438      0.006737866772584652
159.089599609375        0.0025673893934243055
159.12185668945312      0.006189240415781369
161.1016845703125       0.011122248172710108
162.1037139892578       0.002266687151752356
162.8823699951172       0.0028400044711510866
163.08197021484375      0.00484843744592629
163.11781311035156      0.002282461213866846
163.1528778076172       0.003601203445708907
169.0357666015625       0.0028381185695673626
169.0703582763672       0.03860817560301965
170.0703887939453       0.008728611451627977
171.088134765625        0.0017577309037430456
171.12203979492188      0.0029912977332922468
173.10275268554688      0.0030913367275606147
173.13864135742188      0.015659318997121387
175.02783203125         0.005640535943513839
175.0791778564453       0.0019290579492601836
175.1175994873047       0.0033809575013796244
175.15354919433594      0.009315197067135223
179.11009216308594      0.0025239994909818262
179.8854217529297       0.002902486926336868
180.894287109375        0.01151181687354642
181.09298706054688      0.004609057665033222
182.89300537109375      0.004236354214350828
185.06710815429688      0.0021670798162540367
185.13815307617188      0.003161517401036433
187.15219116210938      0.0027351971956169497
189.09600830078125      0.004143915288113016
189.1311492919922       0.002708041750836012
190.87696838378906      0.0036393246017480973
191.14352416992188      0.009252591367603001
197.89682006835938      0.00711310513079336
199.11819458007812      0.002087346795256496
199.15423583984375      0.004246153860052109
199.89743041992188      0.004602339330364646
201.13470458984375      0.0057585141743836865
203.02267456054688      0.00473375342108497
203.1436767578125       0.008959992694674164
205.03907775878906      0.007278457355153951
208.8905792236328       0.01972979036859542
209.16079711914062      0.007049543427496622
209.89117431640625      0.0021385535057870655
215.1498565673828       0.0027353554502621336
215.907470703125        0.004031405544483792
217.15830993652344      0.016249036516578597
218.170166015625        0.003790281319803655
219.14540100097656      0.02216328216617702
220.14906311035156      0.0031333256109383747
221.1033935546875       0.007988975380777351
221.1585693359375       0.003971529838766833
226.901611328125        0.031071942072770805
227.1490478515625       0.0047438003649658105
227.90147399902344      0.002474215858027901
230.96324157714844      0.0036254742847194404
231.01040649414062      0.053194494107351456
231.90377807617188      0.0026008307046170944
232.0225372314453       0.006260678424436892
237.15676879882812      0.017106507943900735
238.15689086914062      0.003564619909611034
245.16232299804688      0.02434661505828615
246.1648406982422       0.0046533981072051514
247.13929748535156      0.004748485673847275
248.042236328125        0.003728338185115848
249.0999298095703       0.006424434341072147
249.91563415527344      0.00336206428473032
253.88168334960938      0.008157267660745662
255.89056396484375      0.015425293161104272
257.8872985839844       0.0035794881561349297
258.8933410644531       0.004112860950756477
260.89398193359375      0.003965926167251293
263.0769348144531       0.005379529107094491
263.10443115234375      0.0029724674542320117
263.1626281738281       0.01994664051631832
264.17437744140625      0.002950965666768865
265.1518859863281       0.0053046483516053684
269.1927185058594       0.004196029635579201
276.1840515136719       0.0021775472884631285
276.9061584472656       0.005914179676434317
277.0846252441406       0.020867816926078867
278.09619140625         0.003299843900855937
278.9078369140625       0.006197236929911561
280.88067626953125      0.02505152091278391
281.88775634765625      0.006204763537026257
283.8746032714844       0.012378016186210636
287.0740966796875       0.004055531485379298
287.21136474609375      0.010113853621029475
288.0816345214844       0.0035004899466676504
289.09295654296875      0.006236428632079939
291.0741882324219       0.005899189602165663
298.8860778808594       0.002823859866510596
303.2027587890625       0.007206709313101468
303.30810546875         0.03237036193923685
303.8852844238281       0.008094250741981963
304.10125732421875      0.06835830040643744
304.2000732421875       0.006525531536797891
304.3171081542969       0.0033982453035784855
304.8277587890625       0.003257552471832972
304.92352294921875      0.01358592896639146
304.96990966796875      0.029166446054564532
305.00506591796875      0.05462131798833261
305.0798034667969       1.0
305.17718505859375      0.022234643273598313
305.6640319824219       0.006861166973606745
305.97430419921875      0.008077936347511154
306.0111389160156       0.015515554163439945
306.084228515625        0.2720710622060851
306.2925720214844       0.018497821263373238
306.90509033203125      0.002439956358177209
307.087158203125        0.032352430190387124
307.2948913574219       0.0028228085456899667


