CHARGE: 1
PRECURSORMZ: 217.047129048
COMPOUNDNAME: challenge15
FORMULA: C10H9NaO4
SMILES: O=C(O[Na])/C=C/C1=CC=C(O)C(OC)=C1
INCHIKEY: NCTHNHPAQAVBEB-WGCWOXMQSA-M
PRECURSORTYPE: [M+H]+
IONMODE: positive
PARENTMASS: 216.039853048
NUM PEAKS: 64
54.13536071777344       0.001455626580522963
54.26091384887695       0.01284803569537218
54.387447357177734      0.0012929283379681225
55.93608093261719       0.0010983513177826958
57.07185363769531       0.0018404702627436746
82.44798278808594       0.0012356751074514675
91.05459594726562       0.008041504556131084
104.7254409790039       0.0011758776818573072
125.01009368896484      0.002045780397952282
128.95433044433594      0.0058830137113972
131.0511474609375       0.001906926782889772
133.93345642089844      0.005137392101335123
133.995849609375        0.001903982163715919
134.01248168945312      0.006495294097375547
135.92800903320312      0.0022442614580096476
143.02838134765625      0.002251525181538976
149.02737426757812      0.0058957295531424665
151.04254150390625      0.0029470291336921037
151.9442596435547       0.003991223567781041
152.0338592529297       0.0015635364063185094
153.93917846679688      0.0016771658701322547
155.02783203125         0.0024765175110408448
161.064208984375        0.005839427947793058
163.0154266357422       0.001341306546757682
164.03518676757812      0.009942174379779352
167.0376434326172       0.002850272716112984
171.04959106445312      0.0014992305970773668
173.0352783203125       0.02116514915288788
173.5426025390625       0.0040715658297031864
175.54176330566406      0.002767088317727304
176.97723388671875      0.01803825905988837
177.02420043945312      0.002992058211311144
182.04762268066406      0.0038806681099396124
184.5489959716797       0.003738428192333917
189.01771545410156      0.005386814103412163
189.05433654785156      0.09518193786364744
190.06407165527344      0.012376824376294256
194.98202514648438      0.006157090505769295
202.02987670898438      0.002700414283257265
215.02992248535156      0.001734504661353257
215.07513427734375      0.0029160723201845894
215.12660217285156      0.001983282296259109
216.04019165039062      0.02678254783343808
216.1248779296875       0.0017937130490317077
216.17149353027344      0.0032727418131380743
216.89688110351562      0.0020799151261541708
216.9273681640625       0.005969589736103226
216.95521545410156      0.01104697830561416
216.98348999023438      0.03360831159528643
217.00381469726562      0.04606103706254249
217.0486297607422       1.0
217.8978271484375       0.002049745661261554
217.94822692871094      0.0014995581044401202
217.98516845703125      0.0027686489449746075
218.00677490234375      0.006617479346421721
218.05184936523438      0.12210336631130363
218.2162628173828       0.0016368169630410368
219.008544921875        0.002143026983299865
219.0584259033203       0.012812094115229366
237.0122833251953       0.002406002751620083
255.02529907226562      0.0013381938483335105
288.98590087890625      0.0017802153725836015
311.9979248046875       0.0028286507655847096
342.2132263183594       0.0015362298025933694


