CHARGE: 1
PRECURSORMZ: 153.12739113199999
COMPOUNDNAME: challenge74
FORMULA: C10H16O
SMILES: O=C1C(C2(C)C)(C)CCC2C1
INCHIKEY: DSSYKIVIOFKYAU-UHFFFAOYSA-N
PRECURSORTYPE: [M+H]+
IONMODE: positive
PARENTMASS: 152.120115132
NUM PEAKS: 20
57.07136917114258       0.0077490286945931415
70.94385528564453       0.04964072112988127
70.9600601196289        0.021440754958303547
72.92900085449219       0.03758754784912436
72.93922424316406       0.49549274873266097
84.0130615234375        0.00617704773964778
90.95069885253906       0.01932060252852595
91.70738220214844       0.006316218692750711
111.9710922241211       0.09532350887434539
111.98597717285156      0.021190253476579553
112.97296905517578      0.011091632594209503
113.92742156982422      0.008698702602805648
113.93892669677734      0.026633514028202666
113.9467544555664       0.05987936949789429
113.96354675292969      1.0
129.98085021972656      0.013376072204192012
131.97401428222656      0.1528263209941048
153.1302032470703       0.009941231469672794
168.28822326660156      0.006515939140477999
202.59732055664062      0.007103291680234874


