CHARGE: 1
PRECURSORMZ: 345.096878852
COMPOUNDNAME: challenge96
FORMULA: C18H16O7
SMILES: O=C1C=C(C2=CC=C(OC)C(OC)=C2)OC3=CC(O)=C(OC)C(O)=C13
INCHIKEY: DRRWBCNQOKKKOL-UHFFFAOYSA-N
PRECURSORTYPE: [M+H]+
IONMODE: positive
PARENTMASS: 344.089602852
NUM PEAKS: 23
66.25481414794922       0.007783402751222035
70.7236557006836        0.008924140717186576
162.0703582763672       0.016727573185138078
163.07723999023438      0.009389779332778295
165.0587158203125       0.015943206351277037
168.0055389404297       0.07644178464563144
169.01222229003906      0.12268550127770907
186.01815795898438      0.011546765792073373
269.0520935058594       0.012323448301976726
286.0512390136719       0.01453791010973423
287.0621643066406       0.02590422084713107
314.0504455566406       0.025666901646275508
315.0589294433594       0.028614168191242892
329.063720703125        0.04199991211789628
329.94580078125         0.015819526107488414
329.989990234375        0.023938025535694903
330.0727844238281       0.6626812803638743
331.07568359375         0.11005047753643855
332.0921630859375       0.015521226636915552
344.9596252441406       0.034839700446142825
345.0963439941406       1.0
346.0990295410156       0.18784717480834365
347.11114501953125      0.016526067013570293


