CHARGE: 1
PRECURSORMZ: 395.1336582839999
COMPOUNDNAME: challenge85
FORMULA: C19H22O9
SMILES: OC1=CC(C)=C(C(C=C(CC(C)=O)O2)=O)C2=C1[C@@H]3O[C@@H]([C@@H](O)[C@H](O)[C@H]3O)CO
INCHIKEY: HKIKAXXIWJHWLY-ZIIYPAMZSA-N
PRECURSORTYPE: [M+H]+
IONMODE: positive
PARENTMASS: 394.12638228399993
NUM PEAKS: 36
98.77934265136719       0.015472404322198385
99.74905395507812       0.01250679142612081
175.0787811279297       0.01562598188161265
203.06967163085938      0.15022353952141454
204.07693481445312      0.07587562041137125
215.072265625           0.024275759111310132
217.09239196777344      0.05060492238456054
218.09603881835938      0.014520466183734173
233.08056640625         0.31612659148132416
234.09231567382812      0.040672546246843196
243.10813903808594      0.04962907300152922
245.08094787597656      0.1906355066030552
246.08985900878906      0.03824611476806071
257.080810546875        0.0886343874020887
258.0873718261719       0.016611570214801998
259.10601806640625      0.022147075793067187
271.10284423828125      0.026584837728387857
275.09100341796875      0.2511550310323449
276.1029968261719       0.041764514484066095
285.1159362792969       0.022784689667531065
287.0968017578125       0.02366488311029827
299.0903015136719       0.1652250493953789
300.09820556640625      0.02707483267108681
305.1099548339844       0.023497125426478006
313.1123962402344       0.028186137868681356
317.1073913574219       0.028996955972816856
329.0993347167969       0.06870597411976803
330.1119079589844       0.018813304272226716
341.113037109375        0.05296863245608637
359.10980224609375      0.08014521123903474
360.1216125488281       0.018286868523903516
377.1240539550781       0.08150644680603276
378.1401062011719       0.022185575887879054
395.1325988769531       1.0
396.1370849609375       0.2113596292274717
397.1490478515625       0.024376880389418192


