CHARGE: 1
PRECURSORMZ: 255.0651848
COMPOUNDNAME: challenge236
FORMULA: C15H10O4
SMILES: O=C1C2=C(C=CC=C2O)C(C3=CC(C)=CC(O)=C13)=O
INCHIKEY: LQGUBLBATBMXHT-UHFFFAOYSA-N
PRECURSORTYPE: [M+H]+
IONMODE: positive
PARENTMASS: 254.0579088
NUM PEAKS: 70
55.9306755065918        0.007422448140213071
55.93619155883789       0.022745933565533626
57.07141876220703       0.01607224899814139
67.28097534179688       0.006067710071062187
68.99871063232422       0.011248139926759859
71.08723449707031       0.009611433112267743
72.93871307373047       0.008653556110668901
81.07164764404297       0.011852121723901167
83.0875473022461        0.009615698822859165
84.96195220947266       0.016278627055518087
88.07752227783203       0.010447495838387642
90.95020294189453       0.006925106004770049
90.97935485839844       0.057585516615865404
95.08807373046875       0.012317263123063507
98.98638153076172       0.010200107380058313
105.03604888916016      0.009833709319933027
113.96605682373047      0.015885716218021487
115.96647644042969      0.01095219746239952
129.07188415527344      0.01087480336356783
131.9769744873047       0.009353351415312298
152.06570434570312      0.007465049907738183
153.02244567871094      0.020224217995536056
153.0693817138672       0.05642058870414018
154.07630920410156      0.007966614310551278
157.06773376464844      0.011756498021901872
159.97117614746094      0.012734144275120145
165.07000732421875      0.051166499315103135
181.06454467773438      0.07422309121904758
182.07315063476562      0.010869298486805574
183.91790771484375      0.01929354834566889
185.0653076171875       0.027039669172173778
191.8839874267578       0.01661819375464884
192.9666290283203       0.0069193813259950205
195.95423889160156      0.009160190440849564
199.07525634765625      0.07336331263152125
200.0816192626953       0.011460580382239445
201.92636108398438      0.008806944298806216
203.88893127441406      0.012840236759101925
203.94180297851562      0.008239405675382717
205.88671875            0.021158663068210855
207.88043212890625      0.014620412743371409
208.8846893310547       0.009346149149830226
209.0586395263672       0.033839040150738214
209.89306640625         0.016792087660443676
211.07772827148438      0.008791590223146892
213.92214965820312      0.04787771092321132
214.89878845214844      0.01579370968138063
223.8981475830078       0.029095582385427067
226.06906127929688      0.024186506647987903
227.07484436035156      0.009594998127886781
230.89898681640625      0.02831907204087615
231.90061950683594      0.014313894957700038
232.92083740234375      0.012164768106869861
233.9046630859375       0.03535204135807912
236.94300842285156      0.015635035384131416
248.91009521484375      0.03148242537166214
249.9145965576172       0.010617457098288062
254.06268310546875      0.018796123461232824
254.14700317382812      0.01049401111610253
254.94857788085938      0.015400371652207439
254.97918701171875      0.0317895606716941
255.0078582763672       0.042294772898367555
255.06451416015625      1.0
255.1470947265625       0.018632135644267772
255.16197204589844      0.01593525079962007
256.0673828125          0.15929535326670516
256.2630920410156       0.088281648643274
256.916015625           0.012450152834080193
257.0780944824219       0.011696510173756997
257.1405334472656       0.022302043142147412


