CHARGE: 1
PRECURSORMZ: 761.2956382279999
COMPOUNDNAME: challenge119
FORMULA: C45H44O11
SMILES: OC1=CC(O)=C(C(C(C/C=C(C)/C)=C(C2=C(C=C(O)C=C2)O)O3)=O)C3=C1[C@@H]4[C@H]([C@H](C5=C(C=C(O)C=C5)O)CC(C)=C4)C(C6=C(C(C/C=C(C)/C)=C(O)C=C6)O)=O
INCHIKEY: DKBPTKFKCCNXNH-QXGWMLRCSA-N
PRECURSORTYPE: [M+H]+
IONMODE: positive
PARENTMASS: 760.2883622279999
NUM PEAKS: 40
53.36832809448242       0.011799059674991058
79.90095520019531       0.010746058805523304
84.58549499511719       0.018632109885861902
91.52132415771484       0.012113731537343745
103.62584686279297      0.012377656508809528
137.0254364013672       0.027836076830954282
147.0448760986328       0.013170306104446122
147.87332153320312      0.011975163766472305
148.998046875           0.042006456939200375
149.02304077148438      0.7833131212120727
150.0312042236328       0.05121372460448568
161.0613555908203       0.014393563196538468
167.0331268310547       0.2060936316008406
168.04034423828125      0.01426955838770634
191.0737762451172       0.01629275088180172
203.07034301757812      0.1096609976967163
205.0453643798828       0.04329753643010836
205.08538818359375      1.0
206.0888214111328       0.11398350705668986
215.07676696777344      0.061478837527640696
229.05496215820312      0.02189161048508968
267.0638732910156       0.3195000258982542
268.0771484375          0.03473341899647402
271.132080078125        0.10524637575155688
272.1385192871094       0.02404873397830034
281.05078125            0.017927985721142115
299.05316162109375      0.13736446323991958
300.0588684082031       0.019589172641207308
311.0621337890625       0.032480247813689064
341.136474609375        0.13084462388537543
342.1428527832031       0.026299446441733664
355.1187438964844       0.07757407577373956
365.0998229980469       0.15114662521141525
366.1106872558594       0.025796975711374598
407.1958923339844       0.029180802156284952
421.1751708984375       0.036411415175343485
520.473388671875        0.013893542534837457
761.2938232421875       0.3359225025809056
762.2981567382812       0.14950299343217813
763.3150634765625       0.02701534131684441


