CHARGE: 1
PRECURSORMZ: 455.2792003159999
COMPOUNDNAME: challenge109
FORMULA: C28H38O5
SMILES: C[C@@]12[C@]3([H])[C@@]([C@@]4([H])[C@](CC3)([C@@](CC4)([H])[C@@H]([C@@]5([H])CC(C)=C(C(O5)=O)C)C)C)([H])[C@H]6[C@@H]([C@]1(CC=CC2=O)O)O6
INCHIKEY: ZTEVDTFJUUJBLP-MBMSZCMESA-N
PRECURSORTYPE: [M+H]+
IONMODE: positive
PARENTMASS: 454.2719243159999
NUM PEAKS: 67
55.05618667602539       0.09000802877626458
67.0562515258789        0.17672625217461224
69.03488159179688       0.0929424161375139
69.07150268554688       0.10032717964053783
81.07209014892578       0.23139012679775817
93.07231140136719       0.10501280518584684
95.08809661865234       0.23470022586861036
105.07202911376953      0.11666002177818521
107.08844757080078      0.2903870024522154
109.10124969482422      0.5128366343511206
110.10729217529297      0.07189239435395288
119.08660888671875      0.08615728614229914
121.06845092773438      0.12544722921781848
121.10418701171875      0.13101387366701925
123.1195297241211       0.1120156267963374
133.10389709472656      0.12613931710436918
135.08409118652344      0.08858787345674816
135.11953735351562      0.13121734817764175
137.09791564941406      0.12475563091420994
143.0887908935547       0.16957189024402888
145.10345458984375      0.11247847466997694
155.1096954345703       0.1775039978767076
161.10267639160156      0.08686311115022655
163.07891845703125      0.17966421061143956
169.10418701171875      0.10582360253636987
171.0796661376953       0.5815354119757901
173.1004638671875       0.09719865824322896
181.1072998046875       0.10767439885166497
183.1222381591797       0.08984901991638768
185.10047912597656      0.08690242178058129
191.07591247558594      0.6058383092239653
192.07826232910156      0.10705406846496818
193.1053009033203       0.11990838539999925
195.12168884277344      0.1302295905926964
197.1012725830078       0.22297425362024506
205.10328674316406      0.08270341288076977
208.09193420410156      0.1444697344433004
211.11741638183594      0.21442757540018895
215.0735321044922       0.11476177431616398
220.17276000976562      0.10867183289946684
221.09469604492188      0.3725604465979438
222.1045684814453       0.09189764613897228
223.11900329589844      0.23341312191337155
237.13108825683594      0.1610586380593562
246.1076202392578       0.08322831299241004
261.125244140625        0.39027624535116995
263.1515197753906       0.3078674558052518
265.16326904296875      0.1935284699584611
276.1549377441406       0.07770089277657423
279.1452941894531       0.1306151131604733
289.1650695800781       0.1262339122085244
290.93804931640625      0.09199373879095055
291.1836242675781       0.21711811205758694
299.1686096191406       0.08189937369478148
305.19757080078125      0.09091466918746204
351.1336669921875       0.0805729303101913
373.25982666015625      0.0913864735490432
401.25982666015625      0.33057880530549705
402.2649230957031       0.10693952525583685
419.27093505859375      0.2828196437111017
436.1766662597656       0.08722797523777795
437.28662109375         0.3226914129148678
453.6749572753906       0.11151872890905484
454.1650085449219       0.10984157134390786
455.275634765625        1.0
456.17205810546875      0.11350881637122352
456.2987976074219       0.2666125667915929


