CHARGE: 1
PRECURSORMZ: 465.11800821999987
COMPOUNDNAME: challenge80
FORMULA: C25H20O9
SMILES: O=C1C=C(C2=CC=C(OC(C3=CC=C(O)C(OC)=C3)C(CO)O4)C4=C2)OC5=CC(O)=CC(O)=C15
INCHIKEY: NMICSFNNFDNGEL-UHFFFAOYSA-N
PRECURSORTYPE: [M+H]+
IONMODE: positive
PARENTMASS: 464.1107322199999
NUM PEAKS: 45
51.67845916748047       0.04046251061055559
51.79020690917969       0.011538101558303593
67.46034240722656       0.0056538732515453915
84.5716323852539        0.006712900596466327
87.03211975097656       0.005803788898576455
91.05579376220703       0.0068821685240629486
116.27452850341797      0.008735288163682313
119.0506591796875       0.00898972478963276
130.04421997070312      0.010949201799210842
146.03990173339844      0.018548162738572786
147.0476837158203       0.015801894930993706
148.05198669433594      0.035576017366708956
153.02247619628906      0.02509513712809967
161.06454467773438      0.023448799044846175
162.07041931152344      0.013710924324199802
203.0384979248047       0.009030964525810313
229.05706787109375      0.01716193820698722
242.056396484375        0.06417119213064128
243.06520080566406      0.013216386698416014
253.05824279785156      0.02026904518887974
256.98828125            0.018794793869397784
257.0436706542969       0.3581432944985893
258.0504150390625       0.1447068732700078
259.06060791015625      0.013914250843583015
270.0607604980469       0.04729564501275921
271.0613098144531       0.01078155362850191
285.0381164550781       0.033820017224318474
285.979248046875        0.010503267989501405
286.0460510253906       0.24795922778476248
287.0536804199219       0.16802037558475372
288.06561279296875      0.019841447145639676
297.0389709472656       0.040800397674238265
298.0521545410156       0.006650267034290699
327.05450439453125      0.013149604129342886
341.0715026855469       0.015283957854313872
388.8459167480469       0.00751497650770378
432.0931701660156       0.02501204145193544
433.0888671875          0.008245377991503593
435.1080322265625       0.04263873805062313
447.1064758300781       0.23138121230610198
448.1119384765625       0.06074961382981285
464.90557861328125      0.025285099727372473
465.11676025390625      1.0
466.120361328125        0.28622306691651045
467.1199951171875       0.041504943779460464


