CHARGE: 1
PRECURSORMZ: 473.3625360159999
COMPOUNDNAME: challenge190
FORMULA: C30H48O4
SMILES: O[C@H]1[C@H](O)C(C)(C)[C@@](CC[C@]2(C)[C@]3([H])CC=C4[C@@]2(C)CC[C@]5(C(O)=O)[C@@]4([H])[C@@H](C)[C@H](C)CC5)([H])[C@]3(C)C1
INCHIKEY: HFGSQOYIOKBQOW-ZSDYHTTISA-N
PRECURSORTYPE: [M+H]+
IONMODE: positive
PARENTMASS: 472.35526001599993
NUM PEAKS: 55
55.05601501464844       0.057234830124461684
67.05659484863281       0.041052081019283114
69.07170867919922       0.07627874148210122
76.07393646240234       0.04450134260571032
79.05587005615234       0.060429775961277514
81.07217407226562       0.07458284656745917
89.5013427734375        0.044965168103755594
91.05655670166016       0.04617390726901966
93.0710220336914        0.07324422558935256
95.08597564697266       0.26898285512040226
105.07156372070312      0.11436590600500568
107.08857727050781      0.29385075057412163
109.10457611083984      0.14774483368795077
119.0894775390625       0.16621977776294572
121.10448455810547      0.18706049648909515
133.10519409179688      0.29669093961551035
135.1178741455078       0.09080157833819874
145.10232543945312      0.09945758188517966
147.1203155517578       0.17629821508189836
149.13690185546875      0.05685273610925908
159.12115478515625      0.08440908057854327
161.13612365722656      0.10464047326664505
163.11605834960938      0.15535643714277053
163.1505889892578       0.05765587756540262
173.1371612548828       0.059719599730802875
175.12078857421875      0.04853459871825396
175.1521453857422       0.17415202763810264
177.1642303466797       0.24270930980026387
179.1453399658203       0.05637626709147707
187.15371704101562      0.18774473193496746
189.1632843017578       0.46460319680834333
190.17071533203125      0.08597207400046195
201.16845703125         0.06077061732467641
203.17941284179688      0.36438348152030625
205.1577911376953       1.0
206.16871643066406      0.17225830144243037
207.1731414794922       0.22072958027534784
248.18226623535156      0.061150745657246715
249.19232177734375      0.1567239118514617
409.3435974121094       0.475786881436143
410.3612976074219       0.17363840632912095
427.3680725097656       0.06412378727165528
432.1766662597656       0.6095583621669031
433.19390869140625      0.2199110557960705
434.1926574707031       0.2065687136473236
437.337646484375        0.299093146104049
438.3574523925781       0.11049420498971015
450.20550537109375      0.06316748267104
453.2770690917969       0.05242560967470212
455.3633117675781       0.1633725620732334
473.16815185546875      0.135200238486223
473.38177490234375      0.14877839139491386
474.3651123046875       0.05945004771716826
475.1933288574219       0.14192364690946305
489.25616455078125      0.05164394396840335


