CHARGE: 1
PRECURSORMZ: 447.09218739599993
COMPOUNDNAME: challenge197
FORMULA: C21H18O11
SMILES: O[C@H]([C@H]([C@@H]([C@@H](C(O)=O)O1)O)O)[C@@H]1OC2=CC(O)=C3C(C=C(C4=CC=C(O)C=C4)OC3=C2)=O
INCHIKEY: JBFOLLJCGUCDQP-ZFORQUDYSA-N
PRECURSORTYPE: [M+H]+
IONMODE: positive
PARENTMASS: 446.08491139599994
NUM PEAKS: 20
65.83645629882812       0.004521073865368012
67.76690673828125       0.009285070254310235
67.89126586914062       0.0049814057042540235
75.88783264160156       0.004230407703219676
80.07759094238281       0.0047468649465496155
85.6824722290039        0.007001075845853893
93.36021423339844       0.004252008371986043
98.5067367553711        0.00484777852523239
102.84825134277344      0.00407757711050033
119.04876708984375      0.006667701092716359
153.01702880859375      0.021066677662509616
181.7021484375          0.006387297354203372
219.3736114501953       0.008757244825534069
271.0593566894531       1.0
272.0626525878906       0.1514044756252788
273.06378173828125      0.010614580607918877
361.22296142578125      0.00450630517056212
447.0917053222656       0.1974808466424496
448.0970458984375       0.04669843942389361
449.1026611328125       0.0059389446861790535


