CHARGE: 1
PRECURSORMZ: 884.5002112560001
COMPOUNDNAME: challenge87
FORMULA: C45H73NO16
SMILES: C[C@H](CC1)CN[C@]21O[C@@]3([H])C[C@@]4([H])[C@]5([H])CC=C6C[C@@H](O[C@@]7([H])[C@H](O[C@@]8([H])[C@H](O)[C@H](O)[C@@H](O)[C@H](C)O8)[C@@H](O[C@@]9([H])[C@H](O)[C@@H](O)[C@H](O)[C@@H](CO)O9)[C@@H](O)[C@@H](CO)O7)CC[C@]6(C)[C@@]5([H])CC[C@]4(C)[C@@]3([H])[C@@H]2C
INCHIKEY: QCTMYNGDIBTNSK-XEAAVONHSA-N
PRECURSORTYPE: [M+H]+
IONMODE: positive
PARENTMASS: 883.492935256
NUM PEAKS: 46
67.05530548095703       0.02283615984102555
69.03484344482422       0.03650295847594237
70.0655288696289        0.07811547537170682
71.0494155883789        0.15699517302478885
73.02925872802734       0.01625879666350033
75.04539489746094       0.01541259952230196
75.6531753540039        0.011217631324173026
79.05592346191406       0.01537018839481117
81.03446197509766       0.018426517330854313
81.07083129882812       0.025278112953111637
83.05039978027344       0.025626868893371905
85.02877044677734       0.3148710201776302
87.04546356201172       0.01927249630781662
91.04081726074219       0.016976326168313117
93.0710220336914        0.01577341079599375
95.08661651611328       0.012793903821269048
97.02983093261719       0.026619031983608914
98.2724609375           0.039531779013084675
98.3850326538086        0.01904695671306274
99.04605865478516       0.013204079327781658
105.07127380371094      0.012883296265118359
107.08715057373047      0.02378440576678733
109.10283660888672      0.03865648157781781
114.0927963256836       0.03754658017566641
119.0875015258789       0.014737506480181567
124.11339569091797      0.046307456296214224
126.12747955322266      0.06366393294211278
127.039794921875        0.027115956627936463
129.05589294433594      0.04988551866900336
131.08541870117188      0.01306296366233964
133.10267639160156      0.034518933502865244
145.1023406982422       0.02322955640651806
147.06631469726562      0.012516800053688108
147.1189727783203       0.03377807309239444
157.1023406982422       0.05465387385366658
159.11888122558594      0.025025582923578673
171.1183319091797       0.012907988234107172
253.19717407226562      0.04706212439156106
396.3370361328125       0.017048052939086067
476.9988708496094       0.012209814823322437
866.4739990234375       0.08985862281897694
867.5220947265625       0.026002361916395187
884.498779296875        1.0
885.10009765625         0.02599988188166006
885.5004272460938       0.46223442515666163
886.5004272460938       0.06534038575265366


