CHARGE: 1
PRECURSORMZ: 529.149308348
COMPOUNDNAME: challenge232
FORMULA: C30H24O9
SMILES: CC(C1)=C(C(C)=O)C(C2=C(C3=C(O)C=C4OC)C4=C5C(OC)=CC(O)=C6C5=C2C1=C(OC)C6=O)=C(OC)C3=O
INCHIKEY: APTUSGMALOMQQL-UHFFFAOYSA-N
PRECURSORTYPE: [M+H]+
IONMODE: positive
PARENTMASS: 528.1420323479999
NUM PEAKS: 38
55.05564498901367       0.022392661859150884
57.03492736816406       0.02363393072104555
57.071834564208984      0.06431058828975034
60.254493713378906      0.01531155483140715
69.0355224609375        0.03745881352809457
69.0713119506836        0.03141249257766614
71.05060577392578       0.02486737289381097
79.05587005615234       0.036749153467576505
81.07168579101562       0.0408703787780418
83.0870132446289        0.020262064730024017
85.03070831298828       0.02015352327715112
85.06747436523438       0.09450554301938496
91.05708312988281       0.12000444165791795
105.07342529296875      0.019716647953951
109.06890106201172      0.023990054546104683
111.08403778076172      0.07280302894857935
114.03438568115234      0.01785720322634213
125.0986557006836       0.030531147249255416
127.07826232910156      0.06412543240445133
133.0806121826172       0.06740495719478129
133.1050262451172       1.0
134.10879516601562      0.044161589151415305
147.08372497558594      0.03852025556616328
149.10073852539062      0.22893735209309435
153.09063720703125      0.08180214948061466
169.0889434814453       0.01953936728988261
171.10107421875         0.14083542335446916
189.0766143798828       0.03699853271122345
189.1116485595703       0.238195383100003
283.269287109375        0.04671960968107184
337.2003173828125       0.16991118047797785
351.1947937011719       0.04204236984078668
443.68023681640625      0.018405744996259858
485.2884216308594       0.4356180056008981
486.2867126464844       0.07507587011571037
529.1666259765625       0.046819031833725176
530.34375   0.23361266485384197
531.3711547851562       0.04572634932688769


