CHARGE: 1
PRECURSORMZ: 433.11292283999984
COMPOUNDNAME: challenge115
FORMULA: C21H20O10
SMILES: O=C(C(C1=CC=C(O)C=C1)=COC2=CC(O[C@@H]([C@@H]([C@@H](O)[C@@H]3O)O)O[C@@H]3CO)=C4)C2=C4O
INCHIKEY: ZCOLJUOHXJRHDI-CMWLGVBASA-N
PRECURSORTYPE: [M+H]+
IONMODE: positive
PARENTMASS: 432.10564683999985
NUM PEAKS: 19
56.08829116821289       0.004951158674418637
71.97273254394531       0.006383016958659202
91.91880798339844       0.0057704428579746945
139.70614624023438      0.005433842773604179
145.03271484375         0.009801897684916737
149.0260467529297       0.014866368190417627
153.01853942871094      0.03250861658480604
215.0703125 0.037744934576131775
243.0712432861328       0.026070399380280485
253.05514526367188      0.014437360408104121
270.9668884277344       0.028085416307212938
270.99615478515625      0.03450744539457628
271.0592041015625       1.0
272.06298828125         0.14088424572074934
273.0712890625          0.01092179228331123
285.15802001953125      0.006142867066019275
433.1088562011719       0.03492646055676993
434.1280212402344       0.006488149010154418
459.7597961425781       0.006274858819589564


