CHARGE: 1
PRECURSORMZ: 517.134052208
COMPOUNDNAME: challenge159
FORMULA: C25H24O12
SMILES: O=C([C@@]1(O)C[C@@H](OC(/C=C/C2=CC=C(O)C(O)=C2)=O)[C@H](OC(/C=C/C3=CC=C(O)C(O)=C3)=O)[C@H](O)C1)O
INCHIKEY: UFCLZKMFXSILNL-PSEXTPKNSA-N
PRECURSORTYPE: [M+H]+
IONMODE: positive
PARENTMASS: 516.1267762079999
NUM PEAKS: 15
55.698646545410156      0.010758262362545325
79.0562515258789        0.012879584033036524
89.04063415527344       0.0195875584080489
90.99146270751953       0.009917115329670208
103.43396759033203      0.01145054537471856
107.052001953125        0.020078732484835708
117.03679656982422      0.044959343752743894
135.0437469482422       0.10785619259325337
145.0281524658203       0.10007784281339487
163.0099639892578       0.05362826189527093
163.03858947753906      1.0
164.04202270507812      0.08166038142191022
319.087646484375        0.012134901410603633
499.1246032714844       0.07751663386828793
500.1400146484375       0.025841442673307548


