CHARGE: 1
PRECURSORMZ: 1125.6051298240004
COMPOUNDNAME: challenge59
FORMULA: C54H92O24
SMILES: C[C@]12[C@](CC=C3[C@@]2([H])CC[C@H](O[C@]4([H])O[C@@H]([C@@H](O)[C@H](O)[C@H]4O)CO[C@@H]5O[C@@H]([C@@H](O)[C@H](O)[C@H]5O)CO)C3(C)C)([H])[C@]6([C@@](C)([C@]([C@H](C)CC[C@H](C(C)(O)C)O[C@@H]7O[C@@H]([C@@H](O)[C@H](O)[C@H]7O)CO[C@@H]8O[C@@H]([C@@H](O)[C@H](O)[C@H]8O)CO)([H])CC6)C[C@H]1O)C
INCHIKEY: OKGRRPCHOJYNKX-APMSXLJSSA-N
PRECURSORTYPE: [M+H]+
IONMODE: positive
PARENTMASS: 1124.5978538240004
NUM PEAKS: 54
81.07083892822266       0.07070839101741774
85.03103637695312       1.0
91.0415267944336        0.05926277918078378
91.05606842041016       0.06419993319541105
95.08844757080078       0.20430673476145056
97.03123474121094       0.2716586801283482
105.07162475585938      0.07355640895172522
107.0723648071289       0.056068838944541316
107.08866882324219      0.15579089715154337
109.03041076660156      0.06900674790260164
109.10452270507812      0.2217561259124102
119.08902740478516      0.17595900409360313
121.10482788085938      0.18265123620445434
123.11968231201172      0.11820859256365582
127.03939056396484      0.28791278155224576
127.11444091796875      0.10544722577630061
131.08877563476562      0.0901692430573628
133.10499572753906      0.18694481579907224
135.10023498535156      0.049970057489172284
135.12130737304688      0.15223632510176263
145.0537872314453       0.5135366190172863
145.10479736328125      0.07963169653494083
147.12112426757812      0.14787347975550733
149.1367950439453       0.10108940507026423
159.1204376220703       0.14543139248323914
161.13653564453125      0.15168389499233564
163.05918884277344      0.2412993414063207
163.15249633789062      0.08718429842118937
173.13543701171875      0.10233119199098419
175.15208435058594      0.0910998036227642
185.13430786132812      0.07147824018234357
187.1533203125          0.14186633666530285
189.16946411132812      0.15513208762994968
191.1831817626953       0.0842129210143937
199.15048217773438      0.08326375456366276
201.17041015625         0.1326597101165223
203.18392944335938      0.10276108955615987
289.0947570800781       0.07489147057441743
325.1128234863281       0.8313406698780261
326.123779296875        0.08983053184996798
405.359619140625        0.1200845283240581
406.3597717285156       0.09106911617573665
423.3624267578125       0.9423580001634795
424.3785095214844       0.22573338443282645
441.3709716796875       0.8028065439792953
442.3872375488281       0.20358528892984723
459.3778381347656       0.3928080677697684
460.3996276855469       0.10964259012312429
487.1816101074219       0.08459393170346433
585.4337158203125       0.08381172066218395
603.4270629882812       0.48517740946425253
604.4501953125          0.15889334969174918
621.4552001953125       0.17159771449369174
765.4783325195312       0.09949824797733353


