CHARGE: 1
PRECURSORMZ: 273.112134992
COMPOUNDNAME: challenge51
FORMULA: C16H16O4
SMILES: O=C1C(CC/C=C(C)/C)=CC(C2=C1C(O)=CC=C2O)=O
INCHIKEY: VOMDIEGPEURZJO-UHFFFAOYSA-N
PRECURSORTYPE: [M+H]+
IONMODE: positive
PARENTMASS: 272.104858992
NUM PEAKS: 87
54.93940353393555       0.01615013232269222
55.0560417175293        0.03573535256859812
55.936275482177734      0.0781733149593349
57.07175064086914       0.057488140084769115
62.02765655517578       0.011890597399398087
70.0672607421875        0.054767439397488536
70.95941162109375       0.0165777024693828
71.08736419677734       0.020885757048132423
72.93931579589844       0.09148869970616316
88.07833099365234       0.0915706315533908
90.95008850097656       0.024707978734387025
91.04317474365234       0.030363476676390028
91.0568618774414        0.43232155304192676
92.05995178222656       0.029453622444947425
102.0942611694336       0.02928605419570088
106.06976318359375      0.014628322351534793
106.0893325805664       0.04205950373828515
108.96001434326172      0.02131187874727398
113.9638442993164       0.0698858231738792
114.2888412475586       0.010063274018330804
116.9739761352539       0.018547901517670436
123.02825927734375      0.02039471552935129
124.72261047363281      0.011090748420635932
128.95413208007812      0.045900724339472315
131.9759521484375       0.011747898616325423
139.989990234375        0.01920153961742117
156.0067596435547       0.011784621545352472
164.00559997558594      0.03852682693957584
164.50613403320312      0.014651279466451552
170.0067596435547       0.012073564581804046
170.50851440429688      0.024500452467424837
178.521240234375        0.012139220862486214
179.0114288330078       0.03261641335373412
179.50962829589844      0.06851942316989208
180.01583862304688      0.011185953253813934
188.01629638671875      0.013664160236835192
190.0200653076172       0.014691127348754487
190.5232391357422       0.03267948423341481
191.02716064453125      0.02192583138664356
192.0258026123047       0.01145327971244289
192.5235137939453       0.03625216354899642
198.03636169433594      0.01973112853065209
198.53338623046875      0.012616573328202284
199.5303955078125       0.04386366419583616
204.01708984375         0.019926740148420708
204.5197296142578       0.03247940490031833
205.02198791503906      0.021767894979854343
206.53504943847656      0.08026930533612527
207.03646850585938      0.10609828902522639
207.54428100585938      0.01771018486907636
212.03797912597656      0.04353293756376729
213.02334594726562      0.022461921626661333
213.52398681640625      0.03743957014526661
214.0240478515625       0.013183049817339861
216.04495239257812      0.014834608204505308
218.54806518554688      0.015065860309315417
221.04225158691406      0.042154865430990354
227.5601043701172       0.017331097666037035
229.54519653320312      0.017399288173690533
231.5517578125          0.031284286600200356
232.03948974609375      0.1318109430190079
232.54286193847656      0.36119645060486816
233.04469299316406      0.11189008565909658
233.5502471923828       0.014802053733977633
240.5572052001953       0.04196796007322069
241.0472869873047       0.11604457142328238
241.5482940673828       0.6157065647291853
242.04885864257812      0.16538353645121717
242.5579833984375       0.03330284176954278
250.55609130859375      0.018764778169924123
252.56231689453125      0.024807587871594657
253.05494689941406      0.09503745405017085
253.56524658203125      0.029879285802775466
254.2548065185547       0.027778149098518286
256.2711486816406       0.04299828464650938
269.0501403808594       0.03247434089629133
271.1920471191406       0.013228348846332665
272.0649108886719       0.022800015094113935
272.2662048339844       0.02916530795908356
273.10455322265625      0.18117062685427987
273.16162109375         0.029173673800534133
274.123291015625        0.03864118532225577
274.2733459472656       1.0
275.27593994140625      0.07128875698547761
281.05438232421875      0.02931101377266698
285.0848083496094       0.031060598239542166
295.06756591796875      0.015556882915954976


