CHARGE: 1
PRECURSORMZ: 312.155396772
COMPOUNDNAME: challenge235
FORMULA: C14H21N3O5
SMILES: O=C(OCCCCNC(N)=N)C1=CC(OC)=C(O)C(OC)=C1
INCHIKEY: WNGSUWLDMZFYNZ-UHFFFAOYSA-N
PRECURSORTYPE: [M+H]+
IONMODE: positive
PARENTMASS: 311.148120772
NUM PEAKS: 14
72.08293151855469       0.29028887716651575
81.01207733154297       0.01399722050959844
97.07880401611328       0.16220117748251583
114.1056900024414       0.2831881779680237
115.1080093383789       0.017851796053526818
132.11328125            0.08698647885856939
153.05874633789062      0.039157241752666515
181.0161590576172       0.04505067593107469
181.04905700683594      0.8069832491394415
182.05218505859375      0.07195974862789435
216.71348571777344      0.017176840141922847
312.03704833984375      0.02599963271919671
312.1543884277344       1.0
313.1572570800781       0.16611080708539058


