CHARGE: 1
PRECURSORMZ: 347.185299932
COMPOUNDNAME: challenge23
FORMULA: C20H26O5
SMILES: O=C1O[C@]2([H])[C@H](O)C3=C(C(O)=C(O)C(C(C)C)=C3)[C@@]41CCCC(C)(C)[C@]24[H]
INCHIKEY: LCAZOMIGFDQMNC-PYQAKABTSA-N
PRECURSORTYPE: [M+H]+
IONMODE: positive
PARENTMASS: 346.17802393200003
NUM PEAKS: 30
53.03998565673828       0.008786051244531867
57.06145095825195       0.013891216908203557
57.06467819213867       0.0434190349520422
57.071773529052734      0.5112078641995819
58.075016021728516      0.022177968929227198
58.76032257080078       0.010616133178806818
70.74402618408203       0.011263156379194747
77.04036712646484       0.011260494920330691
81.16136169433594       0.008193123310692265
86.79082489013672       0.009152405146002579
91.05453491210938       0.08401103558801687
95.03723907470703       0.02854814346145474
95.05189514160156       0.4063943209523126
96.05574798583984       0.025762740904154573
104.5239486694336       0.009148933354691087
110.55059814453125      0.008726739617733226
141.00967407226562      0.093303482040654
159.0235137939453       0.014255427889234146
217.0443115234375       0.014233101619554715
234.9781494140625       0.030391082298850212
235.00279235839844      0.035189702543066075
235.0516357421875       1.0
236.0548858642578       0.09659255949277451
291.1137390136719       0.5216259144614059
292.1166687011719       0.09725651665884914
332.15826416015625      0.009613331287099349
347.08392333984375      0.028977622136676668
347.1764221191406       0.9662513138784821
348.1800842285156       0.19812732419205642
349.19476318359375      0.023799139352598395


