CHARGE: 1
PRECURSORMZ: 375.143829044
COMPOUNDNAME: challenge10
FORMULA: C20H22O7
SMILES: O=C(OC1=CC(C)=C(C(O)=O)C(O)=C1C)C2=C(C)C=C(OC)C(C)=C2OC
INCHIKEY: MIJKZXWOOXIEEU-UHFFFAOYSA-N
PRECURSORTYPE: [M+H]+
IONMODE: positive
PARENTMASS: 374.136553044
NUM PEAKS: 35
57.06138610839844       0.0064437811423553384
57.064537048339844      0.012623177470888055
57.07164001464844       0.19853447427082307
58.074642181396484      0.004496923239771832
88.07695007324219       0.006482199510175103
90.5140380859375        0.003216915630270449
94.06137084960938       0.00967841273641539
125.07133483886719      0.022966149712569793
126.0550537109375       0.020099318340495772
150.3038787841797       0.003633495221636587
191.12205505371094      0.0061385877939793485
193.08555603027344      0.1021288260966371
194.0941162109375       0.011279024805036918
208.1505889892578       0.012147259903633495
209.12794494628906      0.05891454883598262
218.12806701660156      0.029647585737360545
219.11944580078125      0.010860583761226212
260.1579284667969       0.004042567900177532
275.1739196777344       0.04544495812446329
276.18505859375         0.003893928858809871
292.2008361816406       0.04456108249047468
293.18560791015625      0.06284362324507253
302.18548583984375      0.09997487774742173
303.19183349609375      0.006617101664284302
358.2580871582031       0.011577372767537232
374.3598327636719       0.023024166709756995
375.38079833984375      0.007763430333502625
376.0386047363281       0.006439402474955074
376.109375  0.02729036761127753
376.15301513671875      0.027601626993459007
376.2585144042969       1.0
376.3922424316406       0.009815892286217069
377.26141357421875      0.10813576564668904
386.30755615234375      0.003770801607709061
394.2685852050781       0.016784921214939522


