CHARGE: 1
PRECURSORMZ: 280.133204784
COMPOUNDNAME: challenge154
FORMULA: C18H17NO2
SMILES: CN1CCC(C2=C3C4=CC=CC=C4C[C@@]12[H])=CC5=C3OCO5
INCHIKEY: JCTYWRARKVGOBK-CQSZACIVSA-N
PRECURSORTYPE: [M+H]+
IONMODE: positive
PARENTMASS: 279.125928784
NUM PEAKS: 27
62.2746696472168        0.006572192594300769
65.98283386230469       0.010051058480107396
105.0736312866211       0.005997626932888909
135.9974822998047       0.005876763355697028
174.16261291503906      0.006356117162198373
178.07730102539062      0.013919276311721192
179.08448791503906      0.01821759890072027
189.07281494140625      0.008874389180278077
190.0771026611328       0.01181250305652994
191.0850067138672       0.22890981710937344
192.08738708496094      0.03596548682590127
193.10145568847656      0.013085836694505845
201.06834411621094      0.009153739597441366
202.0775909423828       0.007383606171573484
203.08375549316406      0.02998191898346584
207.0811767578125       0.031589928440824165
219.07997131347656      0.2327555632886605
220.08412170410156      0.037701993686068004
221.09588623046875      0.012145211708399162
229.0762939453125       0.010828013076693944
231.0794219970703       0.009490646241620056
238.09097290039062      0.007224888434131123
249.0904083251953       1.0
250.09353637695312      0.16007155917583424
251.09817504882812      0.011220740072542318
280.13250732421875      0.49817234665919763
281.1357727050781       0.09946501000723058


