CHARGE: 1
PRECURSORMZ: 230.15394022799998
COMPOUNDNAME: challenge16
FORMULA: C15H19NO
SMILES: O=C1C=C(CCCCC)N(C)C2=C1C=CC=C2
INCHIKEY: CHULATXGEVFYAJ-UHFFFAOYSA-N
PRECURSORTYPE: [M+H]+
IONMODE: positive
PARENTMASS: 229.146664228
NUM PEAKS: 21
57.53688049316406       0.012815717038749275
62.67544174194336       0.0015149156192742277
158.062255859375        0.0026020244619902946
159.0704803466797       0.0030910350338782307
160.07952880859375      0.005844886972966948
172.0764923095703       0.0017795215911683513
173.03533935546875      0.002962578529554684
173.0519256591797       0.006157122161513459
173.0829315185547       0.1272556431134939
174.08653259277344      0.018484574778496823
186.09634399414062      0.0026465917273242037
205.07568359375         0.0020012122201696525
229.19329833984375      0.0015878589284798335
230.0210418701172       0.005039804571981553
230.05027770996094      0.010069494095935902
230.0816650390625       0.030328409534537484
230.1046600341797       0.038431284158126695
230.1531982421875       1.0
231.082763671875        0.006846984497599295
231.1565704345703       0.16585742503477158
232.16604614257812      0.0037141294322049424


