CHARGE: 1
PRECURSORMZ: 218.11755472
COMPOUNDNAME: challenge244
FORMULA: C13H15NO2
SMILES: O=C(O1)C=C2[C@@]13[C@](CCCC4)([H])N4[C@](C3)([H])C=C2
INCHIKEY: SWZMSZQQJRKFBP-WZRBSPASSA-N
PRECURSORTYPE: [M+H]+
IONMODE: positive
PARENTMASS: 217.11027872
NUM PEAKS: 23
54.52722930908203       0.007477426476921423
54.532020568847656      0.004035442669385697
56.05133819580078       0.01826565588170525
72.98800659179688       0.004132642552222789
82.06548309326172       0.03329564007105935
82.9546890258789        0.0038980793500153076
83.07412719726562       0.005674904626585172
84.06536865234375       0.013288973091267284
84.07030487060547       0.026055159881237133
84.08302307128906       0.4386555204521286
85.08529663085938       0.019551857534416954
134.95944213867188      0.011568958764796406
172.1148681640625       0.006993410148109843
174.1320343017578       0.004633794286388642
178.94955444335938      0.005276693191142916
190.08860778808594      0.0064317411262241496
200.1122283935547       0.004817843263770733
218.02267456054688      0.014842454370555962
218.04891967773438      0.02207823911440441
218.070556640625        0.037218238802153664
218.11695861816406      1.0
218.1756134033203       0.011694623699805283
219.12014770507812      0.1439597946990713


