CHARGE: 1
PRECURSORMZ: 271.096484928
COMPOUNDNAME: challenge1
FORMULA: C16H14O4
SMILES: O=C(C1=C(C=C(OC)C=C1O)O)/C=C/C2=CC=CC=C2
INCHIKEY: CUGDOWNTXKLQMD-BQYQJAHWSA-N
PRECURSORTYPE: [M+H]+
IONMODE: positive
PARENTMASS: 270.089208928
NUM PEAKS: 21
67.01998901367188       0.01699476971188472
70.02362823486328       0.012895236378626844
83.8349609375           0.01313169486247806
91.05630493164062       0.014459505258489587
99.04837799072266       0.015316663332479429
103.04095458984375      0.01447435956566843
103.05766296386719      0.16070051509655844
104.69779205322266      0.012471911712608339
131.0287628173828       0.03927059490200414
131.05325317382812      0.5157656909901049
132.05711364746094      0.04140961120578673
165.05767822265625      0.024985551855304638
166.9887237548828       0.024135442183967154
167.00372314453125      0.048522367130202006
167.039306640625        0.8428644871865975
168.03712463378906      0.07424790890969028
173.06451416015625      0.037122846203075995
198.75164794921875      0.013249746273224398
271.033935546875        0.044803545789441845
271.09564208984375      1.0
272.0986328125          0.16718897550754158


