CHARGE: 1
PRECURSORMZ: 355.1539998039999
COMPOUNDNAME: challenge148
FORMULA: C21H22O5
SMILES: OC1=CC(OC)=C2C(CC(OC2=C1C/C=C(C)\C)C3=CC=C(C=C3)O)=O
INCHIKEY: YKGCBLWILMDSAV-UHFFFAOYSA-N
PRECURSORTYPE: [M+H]+
IONMODE: positive
PARENTMASS: 354.1467238039999
NUM PEAKS: 18
80.52760314941406       0.007973185666457492
80.54013061523438       0.007587829482775218
107.0516357421875       0.02340796231655661
147.0478057861328       0.017979340557568065
151.04095458984375      0.014157092174954006
178.9608154296875       0.014244868175692057
179.03343200683594      1.0
180.0364227294922       0.08902483416111642
193.0524444580078       0.012880815781568664
197.04856872558594      0.023497770356154715
235.09568786621094      0.04851669241232511
273.0799865722656       0.01356292484793274
299.0899963378906       0.14661124442004078
300.10040283203125      0.020129473048173054
315.0968017578125       0.01203305306888843
355.1530456542969       0.5210720563486744
356.15496826171875      0.10781872842891167
368.5357360839844       0.010138301484037394


