CHARGE: 1
PRECURSORMZ: 579.149702272
COMPOUNDNAME: challenge137
FORMULA: C30H26O12
SMILES: O[C@@H]1[C@@H](C2=CC=C(O)C(O)=C2)OC3=CC(O)=CC(O)=C3[C@H]1C4=C5C(C[C@H](O)[C@@H](C6=CC=C(O)C(O)=C6)O5)=C(O)C=C4O
INCHIKEY: XFZJEEAOWLFHDH-AVFWISQGSA-N
PRECURSORTYPE: [M+H]+
IONMODE: positive
PARENTMASS: 578.142426272
NUM PEAKS: 61
51.71714401245117       0.030393075632063737
97.59210968017578       0.042661199541202816
123.04769134521484      0.6802739518439817
124.05089569091797      0.04834193745542012
127.0427017211914       1.0
128.0464630126953       0.04928074443266925
135.0478057861328       0.25746764707399555
137.02748107910156      0.04663584319860504
139.0386962890625       0.7605136164967615
140.0456085205078       0.04589765196383941
147.0468292236328       0.07290664906885623
149.0269775390625       0.07613417881607629
151.043701171875        0.19445315916136935
159.0482635498047       0.04325551839211698
161.06329345703125      0.06674007964302198
163.0387420654297       0.412486667488005
165.02967834472656      0.03850180500154855
165.05831909179688      0.07516002866511014
167.03836059570312      0.10743709308664241
175.04188537597656      0.07218976171607995
177.0577392578125       0.04315980584526267
179.03819274902344      0.08455848240523775
187.04270935058594      0.08567416436025346
191.03408813476562      0.15559278487092093
197.06265258789062      0.03878611217351382
201.05992126464844      0.09133514342637569
203.038818359375        0.11170051572142749
229.05592346191406      0.10601347624620508
231.06951904296875      0.05463764491747995
233.0496826171875       0.12282467601853492
243.0712432861328       0.049755777455361166
245.0452117919922       0.15207807979938442
247.0607452392578       0.41469081535382835
248.06973266601562      0.06634543025366961
255.06936645507812      0.05233659537302461
257.0420837402344       0.20393859537878603
258.0539855957031       0.07046572161842242
259.0583801269531       0.18622589135810708
269.0502624511719       0.04113625108755312
271.0595703125          0.22309532408597468
275.056640625           0.18460883962377345
283.06793212890625      0.11357293769210759
287.0539855957031       0.38937972675694554
288.06610107421875      0.0698329527776678
289.0691833496094       0.39474723312482995
291.0868835449219       0.3412240768435043
292.09814453125         0.03920193983234381
299.059326171875        0.08589192621058807
301.06903076171875      0.23754340917180355
302.0784912109375       0.0393551284774819
303.094970703125        0.06911497259603948
409.09002685546875      0.49961247702714645
410.1120910644531       0.12050188294829917
411.11602783203125      0.03718531469819802
427.1012878417969       0.6273869978120645
428.11993408203125      0.14522903247482039
439.11041259765625      0.05134068076085944
453.1383972167969       0.08691360813599273
560.1322021484375       0.03247649731286365
579.1439208984375       0.2576423489553092
580.1608276367188       0.06580670750044701


