CHARGE: 1
PRECURSORMZ: 243.101570308
COMPOUNDNAME: challenge212
FORMULA: C15H14O3
SMILES: O=C(C1=C2OC(C)(C)CC1)C(C3=C2C=CC=C3)=O
INCHIKEY: QZPQTZZNNJUOLS-UHFFFAOYSA-N
PRECURSORTYPE: [M+H]+
IONMODE: positive
PARENTMASS: 242.094294308
NUM PEAKS: 34
53.078006744384766      0.009511044610533056
60.773590087890625      0.00947922303896192
101.40097045898438      0.010221748126989706
103.0567398071289       0.01885421216327795
105.0372085571289       0.02799016598903905
131.05162048339844      0.014861749936703519
133.03172302246094      0.013752023692895046
138.11325073242188      0.008301254597151616
155.05471801757812      0.03066086419924949
159.0010986328125       0.012525812076446487
159.01596069335938      0.028813583054988327
159.04920959472656      0.4282561145270426
160.05233764648438      0.03268601171702688
173.06385803222656      0.02160599811372137
179.09019470214844      0.024711568704305815
181.072021484375        0.008277504822278273
183.0497283935547       0.11330925964433904
183.0853271484375       0.03653720288718958
184.05369567871094      0.016070809240068106
187.00338745117188      0.051178565244968256
187.03863525390625      0.8457528713980822
188.04840087890625      0.08843481941579306
197.10130310058594      0.028207233765431508
199.0807647705078       0.011390736652490576
201.0610809326172       0.12105250736718833
202.0627899169922       0.019225100175925065
207.08529663085938      0.017521809009068582
214.0689239501953       0.00982843105534157
225.08987426757812      0.15731855226375185
226.1024169921875       0.02604829086451247
243.02281188964844      0.03257956052231125
243.10107421875         1.0
244.1045379638672       0.16613663295784672
245.111572265625        0.012904791597968597


