CHARGE: 1
PRECURSORMZ: 287.05501404
COMPOUNDNAME: challenge53
FORMULA: C15H10O6
SMILES: O=C1C=C(C2=CC=C(O)C=C2O)OC3=CC(O)=CC(O)=C13
INCHIKEY: ZSYPIPFQOQGYHH-UHFFFAOYSA-N
PRECURSORTYPE: [M+H]+
IONMODE: positive
PARENTMASS: 286.04773804
NUM PEAKS: 16
51.12226486206055       0.004977130792845041
107.03477478027344      0.009793680927033394
107.04930114746094      0.05891578136724029
108.054931640625        0.006662850404162213
112.53096008300781      0.003937248393444746
135.0227813720703       0.0063581979659010236
135.0436248779297       0.10521014484801693
136.0497283935547       0.006854065732952739
153.01795959472656      0.3094712280312139
154.0258026123047       0.02404649760035307
286.9546203613281       0.027262623149498025
286.9844665527344       0.03440088793238137
287.05419921875         1.0
287.1431579589844       0.01148174245810505
288.05792236328125      0.15852581972725774
289.0660705566406       0.011271460303477218


