CHARGE: 1
PRECURSORMZ: 442.1469573280001
COMPOUNDNAME: challenge69
FORMULA: C19H19N7O6
SMILES: O=C(O)CC[C@@H](C(O)=O)NC(C1=CC=C(NCC2=CN=C3N=C(N)NC(C3=N2)=O)C=C1)=O
INCHIKEY: OVBPIULPVIDEAO-LBPRGKRZSA-N
PRECURSORTYPE: [M+H]+
IONMODE: positive
PARENTMASS: 441.1396813280001
NUM PEAKS: 11
108.05892181396484      0.040869315672336856
120.02704620361328      0.01730012580083136
120.04441833496094      0.2740998415258739
121.04932403564453      0.013780826949541915
176.05642700195312      0.31012092633504373
177.06385803222656      0.015033741392183223
295.0202941894531       0.037502423859750174
295.0931396484375       1.0
296.0966491699219       0.14735261705448174
313.1083679199219       0.06888804192743692
442.15802001953125      0.015175549274325956


