CHARGE: 1
PRECURSORMZ: 399.1074435359999
COMPOUNDNAME: challenge110
FORMULA: C21H18O8
SMILES: CC(OC1=C2C(O[C@H](C3=CC=C(OC(C)=O)C=C3)CC2=O)=CC(OC(C)=O)=C1)=O
INCHIKEY: HQZXCNZZVRAEPO-SFHVURJKSA-N
PRECURSORTYPE: [M+H]+
IONMODE: positive
PARENTMASS: 398.1001675359999
NUM PEAKS: 24
81.69448852539062       0.0019682574088414535
90.40242004394531       0.0019787104569645914
99.55594635009766       0.01946879910330222
99.80718994140625       0.0038159133045194897
147.04795837402344      0.003270794831813766
153.02333068847656      0.01295652573085808
171.40150451660156      0.0021529814774503457
187.284912109375        0.002559199504844812
224.98733520507812      0.0022622839346131576
273.0754089355469       0.010445749677550874
313.1891174316406       0.003618366338710365
315.08624267578125      0.01100973341067793
357.10675048828125      0.005954599211182769
382.22320556640625      0.0035257386546312577
383.2250671386719       0.0037331758248227986
397.93194580078125      0.003410584749963896
398.0073547363281       0.011456155610389434
398.07806396484375      0.02662041601571193
398.1257629394531       0.032884429265985976
398.24053955078125      1.0
398.38494873046875      0.012478670844796052
399.0753479003906       0.007874945761596855
399.2435607910156       0.24771118868419537
400.2471923828125       0.03268906655203478


