CHARGE: 1
PRECURSORMZ: 306.206369724
COMPOUNDNAME: challenge42
FORMULA: C18H27NO3
SMILES: CC(C)/C=C/CCCCC(NCC1=CC=C(O)C(OC)=C1)=O
INCHIKEY: YKPUWZUDDOIDPM-SOFGYWHQSA-N
PRECURSORTYPE: [M+H]+
IONMODE: positive
PARENTMASS: 305.199093724
NUM PEAKS: 13
69.07159423828125       0.011527605158172695
122.03885650634766      0.02145710186190057
133.1035919189453       0.00987880592263828
135.1195526123047       0.009193670728201427
137.0124053955078       0.012493037097258913
137.02688598632812      0.030261634636861184
137.03733825683594      0.06279331822190969
137.06365966796875      1.0
138.0669708251953       0.08559065658610442
170.15914916992188      0.03398204603640328
182.1599578857422       0.04724169193238009
306.2060241699219       0.0636944808704267
307.2221984863281       0.012233809077342702


