CHARGE: 1
PRECURSORMZ: 793.4368827280001
COMPOUNDNAME: challenge184
FORMULA: C42H64O14
SMILES: C[C@@]([C@@H]([C@@H](OC(/C(C)=C/C)=O)[C@]1([H])[C@]23C)OC(C)=O)([C@@H]4C(C)=O)[C@]5(CC4)[C@@]1(CC[C@@]2([H])C[C@@H](O[C@@](O[C@H](C)[C@H]6O[C@@](O[C@H](C)[C@@H](O)[C@H]7OC)([H])[C@@H]7O)([H])C[C@H]6OC)CC3)O5
INCHIKEY: OHDJGUWKOIBIKY-SGFNNURDSA-N
PRECURSORTYPE: [M+H]+
IONMODE: positive
PARENTMASS: 792.4296067280001
NUM PEAKS: 51
57.03477096557617       0.09967167792631848
59.05124282836914       0.20071490724117902
67.05647277832031       0.19553383750146727
69.02668762207031       0.07910538075015239
69.03565216064453       0.7606486667973493
71.05059051513672       0.10976810222209389
73.7181396484375        0.059306892630643614
79.05612182617188       0.11688487275053022
81.07154846191406       0.06377882630227193
83.051513671875         0.16138445327947
85.03099822998047       0.6633240535094754
85.06746673583984       0.41141430667643836
87.0457763671875        0.12757108300579237
95.05184173583984       0.993655336982098
97.06749725341797       1.0
99.04579162597656       0.13383874566110077
103.12620544433594      0.06232456141623645
111.0472412109375       0.20453349406044358
113.05987548828125      0.9012712976600595
115.07837677001953      0.07191836586785312
119.08870697021484      0.09468404767953861
127.07740783691406      0.07858626536252906
129.0574493408203       0.14510584570864854
137.06570434570312      0.06490391486493133
144.09739685058594      0.06450000529598537
145.0902099609375       0.7012003604752342
161.08251953125         0.0717914934649717
175.11459350585938      0.06712714957154027
187.09861755371094      0.0974384316309328
195.11932373046875      0.06386296808349026
203.10787963867188      0.09316604959973233
205.3031463623047       0.0638117312387542
211.1042022705078       0.08366562316408864
227.13351440429688      0.06871980834917171
251.1827850341797       0.08036966122960011
269.197021484375        0.058163644460624206
273.1407470703125       0.08171456945887944
293.1972351074219       0.11861480999818196
311.20001220703125      0.4868024407382865
312.2138977050781       0.09253764103462951
329.20989990234375      0.33431161548882743
347.2206115722656       0.7355743525150054
348.2340087890625       0.16438500986576782
371.2237548828125       0.06906636892588566
455.30999755859375      0.07004860644488048
471.4300842285156       0.06498286948239941
473.29779052734375      0.10670763026709323
491.3106384277344       0.14360042559408986
633.385009765625        0.1825074727804489
651.37158203125         0.3415958806229762
732.1019897460938       0.06200959084813102


