CHARGE: 1
PRECURSORMZ: 329.10196423199994
COMPOUNDNAME: challenge144
FORMULA: C18H16O6
SMILES: O=C1C=C(C2=CC=C(OC)C=C2)OC3=CC(OC)=C(OC)C(O)=C13
INCHIKEY: QCDYOIZVELGOLZ-UHFFFAOYSA-N
PRECURSORTYPE: [M+H]+
IONMODE: positive
PARENTMASS: 328.09468823199995
NUM PEAKS: 26
50.4651985168457        0.007795887775546369
65.80786895751953       0.008470816057418354
71.45966339111328       0.010305467981396515
76.81608581542969       0.0102036986965599
82.27180480957031       0.010568726860843211
86.70616912841797       0.00993391385963408
108.0232162475586       0.023207141778356446
132.05857849121094      0.014512918911321223
133.0684356689453       0.0375833038611475
135.04689025878906      0.011854095377846197
136.0194854736328       0.032421302133459444
156.3157196044922       0.008700493273255828
237.06373596191406      0.008677018766369764
240.08485412597656      0.021373077552640386
268.07232666015625      0.2796293287347216
269.07427978515625      0.045891886648903736
296.0676574707031       0.23031361228163028
297.0733642578125       0.04402649337080817
313.07513427734375      0.016060364644322114
314.0760803222656       0.10696761244455917
315.0923767089844       0.025252879041871124
328.97491455078125      0.024726103642744343
329.0163269042969       0.04332643611395682
329.1009826660156       1.0
330.1046142578125       0.18201539927651725
331.1164855957031       0.013338481922913953


