CHARGE: 1
PRECURSORMZ: 265.191054008
COMPOUNDNAME: challenge75
FORMULA: C15H24N2O2
SMILES: O=C1CCC[C@]2([H])[C@@]3([H])CCC[N@@+]4([O-])[C@@]3([H])[C@](CCC4)([H])CN21
INCHIKEY: XVPBINOPNYFXID-JARXUMMXSA-N
PRECURSORTYPE: [M+H]+
IONMODE: positive
PARENTMASS: 264.183778008
NUM PEAKS: 25
51.785919189453125      0.004087021982006863
66.29383850097656       0.007092694441184926
66.30118560791016       0.006790929101457087
84.08126831054688       0.004975469280500579
98.0866470336914        0.004719287334878122
98.09932708740234       0.013989896781583655
112.07841491699219      0.009198475461848984
120.08250427246094      0.005489530127580776
124.1144027709961       0.005571527777158097
136.11227416992188      0.027397967187034543
137.12274169921875      0.017938503287230605
148.111572265625        0.043977291926095834
150.1318817138672       0.016583809675401035
176.11077880859375      0.008141271395516618
205.1328125 0.05801556560131721
206.14161682128906      0.010600298086065269
206.19656372070312      0.009419897698462663
220.19801330566406      0.012927209706290861
232.08023071289062      0.00528904766369116
247.17965698242188      0.07272216450519692
248.18614196777344      0.03214107784146604
265.0987243652344       0.02958928849222408
265.1903076171875       1.0
266.1940612792969       0.16045523897822944
267.203125  0.012123585799648626


