CHARGE: 1
PRECURSORMZ: 493.13405220799984
COMPOUNDNAME: challenge83
FORMULA: C23H24O12
SMILES: O=C1C(C2=CC=C(OC)C(O)=C2)=COC3=CC(O[C@@H]4[C@@H]([C@H]([C@@H]([C@@H](CO)O4)O)O)O)=C(OC)C(O)=C13
INCHIKEY: HFODKTZIQVSGJO-IJLXDYNCSA-N
PRECURSORTYPE: [M+H]+
IONMODE: positive
PARENTMASS: 492.12677620799985
NUM PEAKS: 26
66.83513641357422       0.0066668018859686335
81.35674285888672       0.007057884686527596
98.16785430908203       0.006251069464684331
156.76918029785156      0.007226941876912037
230.85702514648438      0.006975518487317152
237.87811279296875      0.008052733605278962
245.0500030517578       0.014990943403393447
270.0557861328125       0.010776067926693797
271.0646667480469       0.006988422705292319
273.0378112792969       0.037068081421838185
278.49432373046875      0.007347834448686133
284.0367736816406       0.016758998676812038
298.0523986816406       0.017184321765786544
299.0621337890625       0.01759280534221528
301.0321044921875       0.04036781624233611
315.05865478515625      0.021594862830340237
316.0572814941406       0.29095090754860203
317.062255859375        0.05094636867016255
318.65032958984375      0.007859717083544679
330.95599365234375      0.028634493556232547
330.9971008300781       0.03471697193714346
331.0803527832031       1.0
332.0837707519531       0.17458482771306175
333.09454345703125      0.019533492634057553
385.82537841796875      0.008346455766618091
493.14068603515625      0.018299842299198822


