CHARGE: 1
PRECURSORMZ: 865.1974403120001
COMPOUNDNAME: challenge14
FORMULA: C45H36O18
SMILES: O[C@H]1[C@@H](C2=CC=C(O)C(O)=C2)OC3=C4C(O[C@]5(C6=CC=C(O)C(O)=C6)OC7=CC(O)=CC(O)=C7[C@@]4([H])[C@H]5O)=CC(O)=C3[C@@H]1C8=C9C(C[C@@H](O)[C@@H](C%10=CC=C(O)C(O)=C%10)O9)=C(O)C=C8O
INCHIKEY: BYSRPHRKESMCPO-LQNPQWRQSA-N
PRECURSORTYPE: [M+H]+
IONMODE: positive
PARENTMASS: 864.1901643120001
NUM PEAKS: 76
70.67346954345703       0.007919238375572336
108.01951599121094      0.010149406811628327
111.0101547241211       0.013817550126896283
121.86885070800781      0.0097145934756256
123.04800415039062      0.08431226225428862
127.0428237915039       0.04296518213941292
135.0479278564453       0.02862533389746056
137.0277099609375       0.049909492141338725
139.0434112548828       0.07860716798583847
147.04896545410156      0.027857768830310506
149.02772521972656      0.03399652492977827
151.0414276123047       0.02137357711813848
153.02227783203125      0.021266034493943316
155.03750610351562      0.012133249921729426
161.0624542236328       0.010862106095484925
163.0389862060547       0.06187184861602471
165.05723571777344      0.009972436739218344
175.04434204101562      0.0265521137860077
185.06358337402344      0.011241234238690688
189.05874633789062      0.015502593937163238
203.04124450683594      0.039772583670965665
213.0609130859375       0.02703468317421089
217.05572509765625      0.01309985136214824
225.06301879882812      0.010475218469156958
229.057373046875        0.028932028406396342
231.07241821289062      0.0357983450625222
233.04823303222656      0.009360848978361097
241.05612182617188      0.015219976350643297
245.05445861816406      0.03752204478684714
247.05978393554688      0.09673936758485657
255.0707550048828       0.013726023168274525
256.9858093261719       0.021577804288173952
257.0431823730469       0.16858001793846952
258.0587463378906       0.038414428662702435
259.059326171875        0.09596102240959518
269.05352783203125      0.03588656117358177
271.06805419921875      0.03133899003792103
275.06640625            0.02352168187290485
283.07135009765625      0.04157798754712406
286.9534912109375       0.032120425145054685
286.9864501953125       0.04565844761730328
287.0543518066406       1.0
288.05780029296875      0.15324718687981892
289.07281494140625      0.021455314479520093
297.0535888671875       0.011086809839747701
299.0622863769531       0.022155841020082733
301.06964111328125      0.05706421495261812
302.08123779296875      0.011218399064597342
311.0639343261719       0.017003958624345235
377.0756530761719       0.01586538948019468
379.0845031738281       0.015659620232009872
391.09271240234375      0.013306690535341151
395.0829162597656       0.01329640135098521
407.08984375            0.030418019960567155
409.09271240234375      0.08638413954488111
410.1092224121094       0.01985688117085385
411.1070861816406       0.06983755436893957
412.1239318847656       0.01552494396307477
413.1001281738281       0.03724202476455066
419.0945129394531       0.010813363142146754
447.09112548828125      0.015536485003006995
449.09881591796875      0.015404752832710927
453.129638671875        0.027619099027153142
533.1055297851562       0.2621951005393369
534.10791015625         0.06926258446660868
543.1101684570312       0.020109958142338964
557.123046875           0.01594756722906276
573.119140625           0.015144052104083044
575.1171875 0.06418515065837843
695.1318969726562       0.10449622859664835
696.1578369140625       0.03289092709137678
713.1474609375          0.18000189623632207
714.1537475585938       0.07376427444564658
739.1803588867188       0.015613650997889745
865.192138671875        0.06399235046069672
866.2318725585938       0.03132350861290498


