CHARGE: 1
PRECURSORMZ: 209.096091004
COMPOUNDNAME: challenge222
FORMULA: C15H12O
SMILES: O=C(C1=CC=CC=C1)/C=C/C2=CC=CC=C2
INCHIKEY: DQFBYFPFKXHELB-VAWYXSNFSA-N
PRECURSORTYPE: [M+H]+
IONMODE: positive
PARENTMASS: 208.088815004
NUM PEAKS: 22
52.2720947265625        0.008882536084559984
77.03180694580078       0.01059464913716428
77.04097747802734       0.019198729021550374
84.96205139160156       0.026564218657272907
95.04993438720703       0.010631876190601238
103.04043579101562      0.020493984626452882
103.05731964111328      0.31644065221611567
104.05961608886719      0.019432915593854197
105.03662872314453      0.24448214334695378
106.0392837524414       0.015122951405714801
107.05162048339844      0.015860711535938588
117.9631576538086       0.03044100845293655
128.9537353515625       0.014064457202782661
131.01849365234375      0.033400783460532796
131.02833557128906      0.06239002321081034
131.05288696289062      1.0
132.05641174316406      0.09800992445004562
181.10389709472656      0.020890418691357673
191.08505249023438      0.056715291322673854
209.05325317382812      0.03425672328890974
209.09564208984375      0.7915557175331986
210.0991973876953       0.14886385358563006


