CHARGE: 1
PRECURSORMZ: 717.1450108160001
COMPOUNDNAME: challenge174
FORMULA: C36H28O16
SMILES: O=C(O[C@H]1[C@@H](C2=C(C=C([C@@H]3[C@H](O)CC4=C(O)C=C(O)C=C4O3)C=C(O)C5=O)C5=C(O)C(O)=C2)OC6=CC(O)=CC(O)=C6C1)C7=CC(O)=C(O)C(O)=C7
INCHIKEY: GPLOTACQBREROW-WQLSNUALSA-N
PRECURSORTYPE: [M+H]+
IONMODE: positive
PARENTMASS: 716.137734816
NUM PEAKS: 45
78.9454345703125        0.012265385573800566
111.04623413085938      0.02642135328419825
123.04602813720703      0.019401927440122636
139.00582885742188      0.03584056076698484
139.01605224609375      0.050690050732151014
139.03854370117188      1.0
140.04600524902344      0.07782051967676087
143.03591918945312      0.028092473485138252
151.0434112548828       0.11968466452203227
153.022705078125        0.3703913540553073
154.0243682861328       0.022442809755659075
163.0382537841797       0.14760025774824592
164.04454040527344      0.02073195249154012
181.04905700683594      0.06796477068651116
213.05885314941406      0.024763170604516264
225.0618133544922       0.016158538726831498
229.05650329589844      0.039908049070371536
241.0560760498047       0.026472974814579334
245.04498291015625      0.014590364816874283
253.05288696289062      0.0181516117427223
255.06890869140625      0.02104173637793343
257.04876708984375      0.026201874937309095
259.0681457519531       0.018222766742038713
271.0682373046875       0.050160197694515116
277.0697937011719       0.09837854182833554
278.08074951171875      0.01560043512084181
283.06707763671875      0.015005928666982579
289.0730895996094       0.01934309317326007
301.0792236328125       0.015095413644884747
333.0606384277344       0.17527737389127904
334.0736999511719       0.03659961580649346
365.0689392089844       0.0171091442991056
367.0957336425781       0.03146496252287288
379.081298828125        0.02415637350546192
391.08941650390625      0.028289662643712066
403.0911560058594       0.01654979207187822
407.0748596191406       0.05686651090729868
408.0950012207031       0.03348459711782004
409.1054382324219       0.04941238708415907
427.1134033203125       0.016032697399550568
441.0940856933594       0.03699771673810877
546.150390625           0.014086917451590367
579.1133422851562       0.17787718656691204
580.1346435546875       0.05305176378294041
591.1248779296875       0.020462529295143275


