CHARGE: 1
PRECURSORMZ: 579.17083164
COMPOUNDNAME: challenge192
FORMULA: C27H30O14
SMILES: O=C(C=C(C1=CC=C(O)C=C1)OC2=CC(O[C@H](O[C@H](CO)[C@@H](O)[C@@H]3O)[C@@H]3O[C@@](O[C@@H](C)[C@H](O)[C@H]4O)([H])[C@@H]4O)=C5)C2=C5O
INCHIKEY: RPMNUQRUHXIGHK-PYXJVEIZSA-N
PRECURSORTYPE: [M+H]+
IONMODE: positive
PARENTMASS: 578.1635556399999
NUM PEAKS: 20
55.39117431640625       0.005063449506311157
67.76034545898438       0.0054275830902897094
67.76815795898438       0.005028463129356958
71.05075073242188       0.0075483590607014015
74.30292510986328       0.004540126262040111
85.03038787841797       0.009280409058691326
119.05036163330078      0.004861893845652064
153.02236938476562      0.01788166393790973
192.2017364501953       0.005414433474046579
210.0799102783203       0.004919324941348876
270.883544921875        0.006288245271297944
270.9661865234375       0.025325404862659214
270.9963073730469       0.035255721057069866
271.059326171875        1.0
272.0628356933594       0.155611878874779
273.072265625           0.01145554081433892
433.1247863769531       0.007615696582010592
579.1712036132812       0.06365840757051774
580.1741943359375       0.021734012064758883
592.50439453125         0.005094503598752605


