CHARGE: 1
PRECURSORMZ: 783.4889182999999
COMPOUNDNAME: challenge46
FORMULA: C42H70O13
SMILES: O[C@@H]([C@@H]([C@@H](CO)O1)O)[C@@H](O[C@H]2[C@@H]([C@H]([C@@H]([C@@H](CO)O2)O)O)O)[C@@H]1O[C@H]3[C@H](O)C[C@]4(C)[C@@]5([H])C[C@@H](O)[C@@H]6[C@@H](/C(C)=C/C/C=C(C)\C)CC[C@@]6(C)[C@@](C)5CC[C@@]4([H])C3(C)C
INCHIKEY: BMSPHMYCTYOUPF-SNVBIOCGSA-N
PRECURSORTYPE: [M+H]+
IONMODE: positive
PARENTMASS: 782.4816422999999
NUM PEAKS: 63
55.055912017822266      0.09610227985310957
67.05653381347656       0.1703130177552022
69.03528594970703       0.09824220798082287
69.07231140136719       0.1361313960462902
70.0675048828125        0.23048524279704205
72.08243560791016       0.09324452018380179
79.0561294555664        0.06272492858910528
81.07239532470703       0.2966024510400195
84.04609680175781       0.0684989083885256
84.08284759521484       0.0989471349655424
85.03118896484375       0.6668316317756461
86.09930419921875       0.19589275939666706
91.0566635131836        0.06425190664991674
93.07250213623047       0.14087419099111192
95.08847045898438       0.40924459122768014
97.03096771240234       0.14620055503357676
100.5127944946289       0.044044147216548035
105.05900573730469      0.05784538728613433
105.07295227050781      0.20717823676958505
107.08871459960938      0.2444024239856717
109.03153228759766      0.05824658858306524
109.10462188720703      0.7045251542517271
119.08936309814453      0.2222119341132256
120.0830307006836       0.07201449898074318
121.10132598876953      0.2656809831004702
123.12045288085938      0.33602802851402425
127.04281616210938      0.1490841107089078
129.10496520996094      0.09765954987018108
133.10513305664062      0.18368770946147167
135.12066650390625      0.18994736985600374
136.07923889160156      0.05685799534623273
145.05416870117188      0.31810336962950225
145.1044464111328       0.0914540047250733
147.12159729003906      0.5290030472842888
149.10897827148438      0.03865642262875982
149.13710021972656      0.1596729255187514
159.12049865722656      0.10750640181368992
161.13778686523438      0.18128022641762684
163.06478881835938      0.1843296210503798
163.15261840820312      0.12444967209711043
173.13616943359375      0.09207362662483379
175.15321350097656      0.09512333584302606
177.1664276123047       0.09768686637249432
187.15310668945312      0.09132847202706273
189.16798400878906      0.07364044693153363
201.1683807373047       0.05688184485485028
203.18601989746094      0.32884203197026957
204.18637084960938      0.05698388850672584
205.16481018066406      0.1356408524845958
215.18763732910156      0.05999508067019282
217.1593780517578       0.05087485227592079
217.2021942138672       0.18413891673552593
223.1770782470703       0.12842548152544578
325.123046875           0.17175599494985508
385.3141784667969       0.07987564175429619
405.3603210449219       0.08837946947262897
423.37322998046875      0.18139824838827392
424.3800048828125       0.072819470689026
441.372802734375        1.0
442.3777770996094       0.2717400035233569
459.3804626464844       0.39686573283726706
460.3948974609375       0.09909017958634112
621.4515991210938       0.07318280376370019


