CHARGE: 1
PRECURSORMZ: 839.4059765239999
COMPOUNDNAME: challenge126
FORMULA: C42H62O17
SMILES: C[C@@]1([C@@]2([H])[C@@]3([C@@]([C@](C)([C@@H](O[C@@]4([H])[C@@H]([C@H]([C@H](O)[C@@H](C(O)=O)O4)O)O[C@]5([H])O[C@@H]([C@@H](O)[C@H](O)[C@H]5O)C(O)=O)CC3)CO)([H])CC1)C)[C@]6(C([C@@]7([H])[C@](C)(CC[C@@](C(O)=O)(C)C7)CC6)=CC2=O)C
INCHIKEY: WBQVRPYEEYUEBQ-OJVDLISWSA-N
PRECURSORTYPE: [M+H]+
IONMODE: positive
PARENTMASS: 838.3987005239999
NUM PEAKS: 103
67.05599975585938       0.016638315062085674
69.07128143310547       0.00794766860036137
70.06742095947266       0.03188751506133382
71.01483917236328       0.009600781526161239
72.08255004882812       0.01628442106437109
79.05636596679688       0.013959044642095318
81.072509765625         0.0520867295024887
84.04688262939453       0.009747338328962884
84.08328247070312       0.030900134058259525
85.03118896484375       0.10012692701628213
86.034423828125         0.007805857178570318
86.09903717041016       0.031858893258389205
91.05653381347656       0.018299929980532616
93.07289123535156       0.03329523073615961
95.01565551757812       0.04205434257968509
95.0515365600586        0.009347460770472734
95.08845520019531       0.07789856558345816
103.04154968261719      0.011962392652575284
105.0732192993164       0.030686552753599713
107.08879089355469      0.0628191046234265
109.06709289550781      0.011812480619764275
109.10475158691406      0.036364830103825664
111.0823974609375       0.010444577374444836
113.0250244140625       0.015550626031452883
117.32867431640625      0.009704815016005995
119.08924865722656      0.0687272570584214
119.55397033691406      0.010183982800489344
120.08500671386719      0.01185912187682019
121.06825256347656      0.009975000029903376
121.10478210449219      0.07562380151540057
123.0089111328125       0.010924951083772401
123.11917114257812      0.01622224340140709
129.10533142089844      0.01579401637429139
131.08749389648438      0.011505522462960539
133.10130310058594      0.06943230747095698
135.08436584472656      0.021798765614261483
135.1173095703125       0.04761930749362659
136.07769775390625      0.011093298192024786
137.09803771972656      0.011133040312997784
140.9952850341797       0.01287593545592624
141.0224609375          0.2065528008755253
145.10562133789062      0.028278513965674115
147.12112426757812      0.06079978658672384
149.1010284423828       0.023869976688467083
149.13674926757812      0.024419632782553016
157.1036834716797       0.01467870142993958
158.048828125           0.009397862199090869
159.033935546875        0.05385696665505846
159.09596252441406      0.011651164364847163
159.122314453125        0.027660516197206445
161.10354614257812      0.016950244655184455
161.13763427734375      0.03170013481011584
163.12010192871094      0.008570102926281742
163.15237426757812      0.020137421250170734
171.118896484375        0.012826831620240108
173.10507202148438      0.012102751624664669
173.1376190185547       0.0313419920410313
175.11778259277344      0.017296139499762653
175.15341186523438      0.07155287691553908
177.04298400878906      0.011665041845360699
177.16798400878906      0.01165258388523574
185.13894653320312      0.012648229255914006
187.14743041992188      0.042561948830937474
189.13003540039062      0.012204860974647291
189.1632843017578       0.07214067761392247
197.13812255859375      0.013218664636540695
199.15310668945312      0.026065265414393014
201.16741943359375      0.01050666158935818
205.1637420654297       0.014890189498264636
211.1522979736328       0.01414371400986276
213.169677734375        0.013062169411056139
215.1481170654297       0.026235933594227476
217.16412353515625      0.03384035504477931
227.1822052001953       0.009432540325699599
233.16041564941406      0.020907319269974856
235.1770477294922       0.026376963612318734
251.17958068847656      0.01142442646463604
263.1716613769531       0.013554705606672292
265.1995849609375       0.009836422800646552
299.2034606933594       0.010240874863711802
317.2179870605469       0.016123113709268326
393.3094787597656       0.00975559290677107
405.3304138183594       0.020982392763929762
406.3385925292969       0.009473353094338716
423.3379211425781       0.03051352968288865
433.3187255859375       0.018205006340654934
439.31671142578125      0.04543596231855628
451.3192443847656       0.17547137403906213
452.3214416503906       0.03765407500997064
469.1101989746094       0.028741961118092362
469.3303527832031       1.0
470.3343505859375       0.30451473769384935
471.3538818359375       0.023677215609494033
487.3409729003906       0.6046893278438709
488.3447570800781       0.1752291424520518
489.3566589355469       0.01934791159946837
627.376953125           0.028491005933057676
645.3583984375          0.058415341206635975
646.3909301757812       0.023825767750672598
663.3948364257812       0.03581229046989083
664.3938598632812       0.020699125912921595
863.6302490234375       0.01445199912898585
872.0835571289062       0.010018715028001522


