CHARGE: 1
PRECURSORMZ: 345.096878852
COMPOUNDNAME: challenge233
FORMULA: C18H16O7
SMILES: O=C(C1(C)C(OC2=C(C(C)=O)C(O)=C(C)C(O)=C12)=C3)C(C(C)=O)C3=O
INCHIKEY: CUCUKLJLRRAKFN-UHFFFAOYSA-N
PRECURSORTYPE: [M+H]+
IONMODE: positive
PARENTMASS: 344.089602852
NUM PEAKS: 41
53.82672119140625       0.01240155572514816
57.93646240234375       0.017481249509500158
79.34105682373047       0.012700819990981608
101.87677764892578      0.012830304506270233
113.47261810302734      0.015238881998894022
191.07395935058594      0.032744606883374223
201.060791015625        0.015897330189522333
209.88348388671875      0.016835985274117397
215.06991577148438      0.08563182361829881
219.0709991455078       0.0533204266191825
221.8787841796875       0.01566591810626007
233.08016967773438      0.24133176207049226
234.0906524658203       0.027032312726026863
243.07086181640625      0.03163323489691451
257.0865173339844       0.03521890922815626
261.074951171875        0.16134080711436846
262.083984375           0.019325725605203087
267.072265625           0.01482437596512223
269.0554504394531       0.015580564400304121
275.0984191894531       0.024566998152885343
281.0842590332031       0.02820747981635686
285.0856018066406       0.050737735859541715
291.07318115234375      0.013857929138310295
294.05865478515625      0.015747174862682727
297.89642333984375      0.03474695552703159
299.09722900390625      0.022920922863257944
299.89300537109375      0.019932802443335645
303.0851745605469       0.1251387150559975
309.07672119140625      0.0636642637466975
312.0718994140625       0.029661971326229913
315.0605163574219       0.04098621627402485
327.085693359375        0.3144777350497917
328.0876770019531       0.07937456960765457
330.072998046875        0.13081399667662258
331.0850524902344       0.025930189000645986
343.2755126953125       0.11170816314217487
344.9605407714844       0.023442187037852752
345.0958251953125       1.0
346.0990905761719       0.18932820347997445
346.3421630859375       0.020396416938360105
362.8407897949219       0.015363511132815335


