CHARGE: 1
PRECURSORMZ: 611.197046388
COMPOUNDNAME: challenge49
FORMULA: C28H34O15
SMILES: OC1=C(OC)C=CC([C@@H]2CC(C3=C(C=C(O[C@@H]4O[C@H](CO[C@@H]5O[C@@H](C)[C@H](O)[C@@H](O)[C@H]5O)[C@@H](O)[C@H](O)[C@H]4O)C=C3O)O2)=O)=C1
INCHIKEY: QUQPHWDTPGMPEX-QJBIFVCTSA-N
PRECURSORTYPE: [M+H]+
IONMODE: positive
PARENTMASS: 610.1897703879999
NUM PEAKS: 35
57.034912109375         0.05315594680277328
69.03524780273438       0.038469759387651827
71.05147552490234       0.3561312625541665
75.91744995117188       0.02580451749875589
85.03106689453125       0.38224109610220713
89.06245422363281       0.08428640180569828
111.04590606689453      0.03304833209029076
116.18550872802734      0.0277336311990466
129.0587921142578       0.10904036595709374
133.08676147460938      0.02652459163721408
147.06790161132812      0.05042367085061211
153.02308654785156      0.3592934824423968
171.03173828125         0.05132602655182793
177.0237579345703       0.06323122222914662
177.0543975830078       0.2929055743925798
178.06407165527344      0.030800852449719827
179.03836059570312      0.06133537861200423
191.0366668701172       0.03389235734875742
195.02853393554688      0.187856042146362
196.0345458984375       0.02827092690800029
219.03282165527344      0.057576758716390564
245.05055236816406      0.062492215754299
263.0568542480469       0.05059326803354442
303.0854187011719       1.0
304.08709716796875      0.13918514584535333
345.1027526855469       0.05080168364496511
369.1112365722656       0.04090051718003015
413.1363830566406       0.084483577948638
431.1486511230469       0.09604936794894686
432.1510925292969       0.03610391409464071
449.1480407714844       0.14106771112701896
465.157470703125        0.10460234075180896
592.3771362304688       0.06374773520141219
609.3994750976562       0.06268181896268295
613.3377685546875       0.13966491352279847


