CHARGE: 1
PRECURSORMZ: 321.112134992
COMPOUNDNAME: challenge116
FORMULA: C20H16O4
SMILES: O=C1C(C2=CC=C3C(C=CC(C)(C)O3)=C2)=COC4=CC(O)=CC=C14
INCHIKEY: PWAACAMQKVIVPZ-UHFFFAOYSA-N
PRECURSORTYPE: [M+H]+
IONMODE: positive
PARENTMASS: 320.104858992
NUM PEAKS: 20
95.27436065673828       0.007684534224739304
97.69316864013672       0.007752314344511478
137.02301025390625      0.27014859685627124
138.0288543701172       0.021414246329574557
138.10255432128906      0.008893129443425149
183.08306884765625      0.012031367751132544
211.07997131347656      0.01928910380441959
267.0716552734375       0.018506513774042672
270.8267822265625       0.00894889779710041
279.0623474121094       0.0506068479686494
280.075439453125        0.015057136468599446
288.083740234375        0.011494316158323461
303.1092529296875       0.03121780736858189
305.08966064453125      0.02953410738041401
306.0873718261719       0.04515957545620183
320.9863586425781       0.02601188676109713
321.1113586425781       1.0
321.2163391113281       0.009334346441101066
322.1151123046875       0.22862639389308684
323.1248779296875       0.021242048046102087


