CHARGE: 1
PRECURSORMZ: 519.331629812
COMPOUNDNAME: challenge180
FORMULA: C30H46O7
SMILES: CC1(C)[C@@H](O)CC[C@]2(C)C3=C([C@@]4([C@@H](O)C[C@@H]([C@]4(CC3=O)C)[C@H](C)CC(C[C@@H](C)C(O)=O)=O)C)[C@@H](O)C[C@@]12[H]
INCHIKEY: RERVSJVGWKIGTJ-RQLZKMEDSA-N
PRECURSORTYPE: [M+H]+
IONMODE: positive
PARENTMASS: 518.3243538119999
NUM PEAKS: 58
55.055747985839844      0.0450232244067579
55.700843811035156      0.04788803665794166
69.03560638427734       0.09423235991790598
69.29588317871094       0.03708640089339534
70.81803894042969       0.029917209963408593
83.08712768554688       0.04301311021355025
87.04638671875          0.062498758329128205
89.0624008178711        0.4048909717536335
91.05579376220703       0.032497307083690447
93.07206726074219       0.045565294085704464
95.08799743652344       0.11211749427974403
96.76472473144531       0.03006365652146577
105.07278442382812      0.05198023813124307
107.088623046875        0.10253006167958667
109.10321044921875      0.04203726890216506
119.08829498291016      0.09829726897851565
121.06710052490234      0.07380690329271249
121.10446166992188      0.2158275036155508
123.08357238769531      0.04249479783728397
131.0892333984375       0.05028113571028287
133.08859252929688      0.11272245580567124
133.1070098876953       0.05884429209646008
139.07940673828125      0.1288391879040105
145.1044921875          0.04413920830831488
147.1194610595703       0.06062942039699656
157.10406494140625      0.040680801906302716
159.08570861816406      0.05265447515322121
159.12001037597656      0.05299148410501571
163.1146240234375       0.043387242689762566
171.12216186523438      0.03537390790420993
173.10110473632812      0.051264276098675184
173.13427734375         0.05129605800369552
175.0801239013672       0.04157656518505239
175.8839111328125       0.03693653852311635
189.1324005126953       0.041221486270100166
199.1156768798828       0.0502816469865242
201.12945556640625      0.040250872149620344
215.1490478515625       0.07687320220665657
217.12371826171875      0.0582859979181221
233.16195678710938      0.054596068591496086
235.13894653320312      0.04012535383237478
277.20062255859375      0.037275619361012605
317.2377624511719       0.049226937662941304
335.24114990234375      0.05309093950719748
442.623779296875        0.03665935132620577
447.30078125            0.09197299612240308
448.2941589355469       0.04188148546608176
465.3006591796875       0.21189042335386774
466.317138671875        0.09639456175036677
483.3091125488281       0.4834549060587851
484.31884765625         0.15618839608221774
489.9651184082031       0.049452386138878444
501.32073974609375      1.0
502.32171630859375      0.3174471137803691
503.3055725097656       0.3688752320025504
504.3155212402344       0.04577828202924586
519.3562622070312       0.03829269144928759
520.33154296875         0.17077935327470387


