CHARGE: 1
PRECURSORMZ: 854.3382313120003
COMPOUNDNAME: challenge95
FORMULA: C47H51NO14
SMILES: O[C@@H]1C[C@]2([H])[C@](CO2)(OC(C)=O)[C@]3([H])[C@]1(C)C([C@H](OC(C)=O)C4=C(C)[C@@H](OC([C@@H]([C@H](C5=CC=CC=C5)NC(C6=CC=CC=C6)=O)O)=O)C[C@]([C@H]3OC(C7=CC=CC=C7)=O)(O)C4(C)C)=O
INCHIKEY: RCINICONZNJXQF-LYTKHFMESA-N
PRECURSORTYPE: [M+H]+
IONMODE: positive
PARENTMASS: 853.3309553120002
NUM PEAKS: 94
67.05548858642578       0.0159225145534834
69.03478240966797       0.016762832115111495
77.04078674316406       0.015633184176526087
79.05658721923828       0.048871621529824945
81.07160186767578       0.01792796411680872
91.05689239501953       0.07921270951632257
93.07276153564453       0.036075130831737176
95.0517578125           0.07997387828395829
95.08775329589844       0.020038029034995165
105.019287109375        0.06478593436299548
105.03646087646484      1.0
105.0728759765625       0.07293555664666992
106.0372314453125       0.07531808709959605
107.08824157714844      0.03429065052585887
109.06649017333984      0.015578428263652407
109.1028060913086       0.018113545801971123
118.06857299804688      0.05952648252857785
119.05192565917969      0.02966473641035821
119.08860778808594      0.03505209648532548
121.06813049316406      0.03415070023007343
121.10398864746094      0.030520245136946518
122.0634765625          0.19003836840200636
123.08309173583984      0.015325097737137822
129.07208251953125      0.015128321361640377
131.08863830566406      0.029204759373911933
133.06881713867188      0.06401699018906531
133.10467529296875      0.04205373406448726
135.08277893066406      0.015284592642253726
143.08935546875         0.02904586529717715
145.1046142578125       0.021412407535822728
147.08322143554688      0.023313720689665626
149.06239318847656      0.020154993461360498
149.1005859375          0.04051812290014908
155.08763122558594      0.020055920188738585
157.1048583984375       0.023923958505379404
159.08328247070312      0.028697356218702588
161.09906005859375      0.022343117704381184
169.105712890625        0.036681380944719164
171.08480834960938      0.013787997982492592
171.1203155517578       0.013760292834432575
173.10076904296875      0.01757703399576052
179.09097290039062      0.016463850901054504
180.0955810546875       0.022674654923538845
181.1045379638672       0.020699466638005266
183.12026977539062      0.015935305728414097
187.1166229248047       0.017573279625392714
192.09739685058594      0.018117086138140396
193.10633850097656      0.04014866127714052
194.11172485351562      0.01512486172689023
195.0833282470703       0.013988796271106017
195.12025451660156      0.027066862992400763
197.09884643554688      0.018938031850422067
206.11227416992188      0.017411478543190893
207.12083435058594      0.02044040631073308
209.0966339111328       0.019372461624580478
209.1360626220703       0.0189076600467737
211.1141357421875       0.030027559464454717
213.09446716308594      0.015370762459709642
220.12998962402344      0.02558531125260167
221.13893127441406      0.023420395685093014
223.11770629882812      0.03765257690999627
233.140869140625        0.016791661819903176
235.15553283691406      0.02185596007909918
237.13047790527344      0.025711084414301942
239.1508026123047       0.03395889050060929
240.10107421875         0.13473289991665438
241.1186065673828       0.012477964828384713
248.12481689453125      0.017974276205112185
249.13372802734375      0.026988435248044444
251.14988708496094      0.022540697585312488
253.1649169921875       0.029517547548153344
255.14151000976562      0.018173217483896487
263.1511535644531       0.05488949126611348
267.1462707519531       0.020568186481639317
268.1053771972656       0.0754874407820004
281.1518249511719       0.07397053480311155
282.1635437011719       0.017158430471643234
283.1329345703125       0.01585390080344368
286.1070556640625       0.24278807206639536
287.1206359863281       0.036947828960598283
291.1455078125          0.03906629033513068
299.1693115234375       0.01866429965427793
309.1491394042969       0.11525707205483048
327.15887451171875      0.14947860707834815
328.17315673828125      0.02114692793697306
345.1808166503906       0.04376216907225199
369.17779541015625      0.04110760817049799
387.19256591796875      0.046049475359372545
431.20269775390625      0.02454450154143921
449.209228515625        0.034943272376019324
491.21209716796875      0.016195227455616464
509.21734619140625      0.28658525151951647
510.2284851074219       0.07068109583713168
551.2402954101562       0.01820636471461115


