CHARGE: 1
PRECURSORMZ: 166.049869084
COMPOUNDNAME: challenge161
FORMULA: C8H7NO3
SMILES: O=C1OC2=CC(OC)=CC=C2N1
INCHIKEY: MKMCJLMBVKHUMS-UHFFFAOYSA-N
PRECURSORTYPE: [M+H]+
IONMODE: positive
PARENTMASS: 165.042593084
NUM PEAKS: 33
50.72030258178711       0.005881071256145578
63.559356689453125      0.004348845031008897
82.01605224609375       0.005060533313583677
83.931884765625         0.008881757014063081
83.94305419921875       0.005932834953183689
84.94922637939453       0.017565070235113323
84.9622573852539        0.2080093055969317
95.0519027709961        0.0693570357896246
100.02627563476562      0.008325506411903343
102.97282409667969      0.009794618145780943
106.02922821044922      0.02662328403326991
107.0386962890625       0.00784837521888451
109.05503845214844      0.01579212843705681
110.06307220458984      0.06371281957493334
122.06343078613281      0.02974446203780969
123.04450225830078      0.02662266024901157
124.9594955444336       0.005520285184071471
125.96964263916016      0.006032404089593916
125.98949432373047      0.014378690141329885
126.95860290527344      0.01791310026565114
138.05889892578125      0.03182664280265857
141.982177734375        0.005500047889996793
142.97142028808594      0.03711709294400974
146.63450622558594      0.005279272620535302
150.0229034423828       0.09151820527388133
151.0301055908203       0.043667257374649195
165.01309204101562      0.009821749295550734
165.04153442382812      0.21309674584449897
165.9853515625          0.008911214186022868
166.0057373046875       0.035074579313242475
166.02003479003906      0.049153268039552424
166.04930114746094      1.0
167.0529022216797       0.08346544437037645


