CHARGE: 1
PRECURSORMZ: 587.248688036
COMPOUNDNAME: challenge188
FORMULA: C31H38O11
SMILES: O=C1[C@H](OC(C)=O)C(C2(C)C)=C(C)[C@@H](O)C[C@@]2(O)[C@@H](OC(C3=CC=CC=C3)=O)[C@@]4([H])[C@@]1(C)[C@@H](O)C[C@@]5([H])OC[C@]54OC(C)=O
INCHIKEY: OVMSOCFBDVBLFW-VHLOTGQHSA-N
PRECURSORTYPE: [M+H]+
IONMODE: positive
PARENTMASS: 586.2414120359999
NUM PEAKS: 186
53.03460693359375       0.0196733853373176
53.04039764404297       0.0563135964709476
55.05601501464844       0.05265832269060878
57.03476333618164       0.02612238975576315
57.071205139160156      0.02536117477959836
63.90140914916992       0.01933045661506366
67.0550765991211        0.10583081234126362
69.03498840332031       0.03601023593492561
69.0716781616211        0.053295964021884606
70.06755828857422       0.01975395583912309
71.05107879638672       0.06296756569833699
77.04006958007812       0.043293873715716524
79.05654907226562       0.075514737011458
81.07203674316406       0.13002161465526996
81.78675079345703       0.020354991663130467
83.0404052734375        0.023215694517813808
83.05086517333984       0.048507638053568454
83.08747863769531       0.04153517686665718
85.03077697753906       0.09623696179469551
91.05663299560547       0.122637286911076
93.0723876953125        0.20431731525339686
95.04939270019531       0.19254744786747474
95.0879898071289        0.20458915741742073
97.06611633300781       0.018162938818693932
105.0192642211914       0.05734113620176615
105.03343963623047      1.0
105.07257080078125      0.2978766061419139
106.03971099853516      0.07184814603397055
106.07610321044922      0.030369751494293593
107.05096435546875      0.02538737861346413
107.08565521240234      0.14595737540282164
108.20745086669922      0.017996986351733794
109.06488037109375      0.15383718018615655
109.10411834716797      0.12988024014024607
111.04618835449219      0.04289842481558396
111.0832290649414       0.05816753426256067
113.09864807128906      0.02452431768728695
117.07283782958984      0.05450746004927927
119.05194854736328      0.058866231100324885
119.08859252929688      0.1320310635309768
121.06493377685547      0.1578681672631793
121.10092163085938      0.13262181680997254
123.02884674072266      0.023128841096421708
123.04784393310547      0.05684354573672491
123.08370208740234      0.1784193148525607
123.11918640136719      0.03397350003942708
124.08507537841797      0.022819085218909272
125.06151580810547      0.04099462517407747
128.06300354003906      0.025666273619453728
129.0729217529297       0.029276607317314053
131.0889129638672       0.08271386864137653
133.06463623046875      0.5226911523573409
133.1045684814453       0.21185690700057724
134.07069396972656      0.036573814704276744
135.04644775390625      0.02126077997222667
135.08299255371094      0.07124941997710052
135.12057495117188      0.055902709413769014
137.06224060058594      0.05716240831790782
137.0950164794922       0.08979178051516976
139.0776824951172       0.0436889961158144
141.09384155273438      0.028485371986607638
142.08065795898438      0.02122088740379809
143.08900451660156      0.0805763788061168
145.06997680664062      0.03685675566339901
145.10040283203125      0.10143662486077862
147.04823303222656      0.026727791414693943
147.0841522216797       0.06450845172695222
147.12110900878906      0.05806669428562816
149.06341552734375      0.07738270548023778
149.09959411621094      0.07099080547664452
151.07955932617188      0.08469946536589994
151.1138153076172       0.05090147453769184
155.08790588378906      0.034971840077953384
156.09490966796875      0.025981703538109684
157.07708740234375      0.019707034695623255
157.10464477539062      0.06278488892892387
159.08428955078125      0.12071030135494337
159.12074279785156      0.08194390214063306
161.06639099121094      0.04746740011869777
161.10043334960938      0.11076423668986429
161.13351440429688      0.04008199139465919
163.04327392578125      0.026640454861493745
163.08103942871094      0.02391080206127767
163.1151123046875       0.03629055827552635
163.14768981933594      0.020376785540446505
165.0953826904297       0.0640718638224478
167.11102294921875      0.037403720434362936
169.1055145263672       0.06983714848918021
170.11209106445312      0.021367715351833967
171.08580017089844      0.03449196003371316
171.1215362548828       0.06209919914659597
173.06500244140625      0.025322369809258328
173.10072326660156      0.046594211073201025
173.13540649414062      0.041469320927226216
175.07937622070312      0.04827223594071437
175.11447143554688      0.025234141999206657
175.15243530273438      0.025444946305392672
177.06166076660156      0.02193267071592598
177.0955810546875       0.07128215822382288
179.10874938964844      0.09227839595509872
181.06956481933594      0.023816372956648065
181.10336303710938      0.0520205181093156
183.12020874023438      0.0576245867656723
185.10108947753906      0.048534269867209434
185.13636779785156      0.03960982381069803
187.08001708984375      0.03950868821886924
187.1155242919922       0.04313562709079151
187.1495819091797       0.0397713177873195
189.09498596191406      0.0443659321674823
189.13131713867188      0.03680528778630788
189.16781616210938      0.03019067725566873
193.10398864746094      0.044000834534088686
194.11158752441406      0.02260973251422887
195.0718536376953       0.03909745701300543
195.1197509765625       0.06538285852933513
196.0900115966797       0.024638286054128128
196.13253784179688      0.02520369587097114
197.09938049316406      0.042979621844483056
197.1355743408203       0.047958372339792436
199.11529541015625      0.03489820549580389
201.09381103515625      0.026255356894893604
201.13095092773438      0.03411773363583591
201.1679229736328       0.025583545570121654
206.11265563964844      0.029885684307716504
207.11053466796875      0.11039432979920283
209.09815979003906      0.04073698576156292
209.138427734375        0.028313546931185582
211.1153564453125       0.07854950188801733
211.14999389648438      0.03602959429846932
213.09075927734375      0.02568522827011669
215.1095428466797       0.025212517990151912
215.18560791015625      0.029802631964431052
217.12525939941406      0.024866445602023356
220.13107299804688      0.03925865096256799
221.1383056640625       0.059046031139702554
222.1053009033203       0.021671739830088677
223.11175537109375      0.03914079327436754
224.12490844726562      0.028659237667246554
225.13035583496094      0.04238538736917143
225.17242431640625      0.03788014134310043
235.15261840820312      0.05187730813463718
237.1300811767578       0.03268217916571158
238.14247131347656      0.02324475302090186
239.14990234375         0.05569109326965888
245.12962341308594      0.026915378921115403
247.14239501953125      0.024055465843543018
248.12503051757812      0.02700384940011178
249.1317901611328       0.03161857000538425
253.16641235351562      0.08665083253273172
263.1494140625          0.08469145287856196
264.1535339355469       0.021991074512673108
267.1438293457031       0.04433750460365049
271.1750793457031       0.034457997411860695
281.15240478515625      0.12847527519364277
282.1617431640625       0.027603910136177693
285.1560363769531       0.07038595533804261
291.14630126953125      0.050208681173527954
299.1621398925781       0.1302637894377627
303.1662902832031       0.027105834333247043
309.14776611328125      0.21740603099568956
310.1607971191406       0.04385255057238456
317.1800842285156       0.04700258760984256
327.1582946777344       0.45956807116274745
328.1668701171875       0.09236069161249295
345.16827392578125      0.3703137273533399
346.18438720703125      0.0756074453726615
347.1908264160156       0.020589968002290654
369.1785583496094       0.05293783760544804
387.17877197265625      0.11998583307525124
388.1905822753906       0.03896325226225697
405.19024658203125      0.4825727694453008
406.19439697265625      0.10026303372254726
423.3705139160156       0.026106861149383192
434.3479919433594       0.021975607676569982
441.3846740722656       0.03391253277619132
449.2007141113281       0.0368353081408495
509.22509765625         0.03247519358628274
533.4066772460938       0.032418766438394316
551.4271850585938       0.05183868406296502
567.4100952148438       0.027477572271400384
569.4328002929688       0.05844874786001288
585.4175415039062       0.05906356507399832
586.4439086914062       0.049402433459469416
587.2491455078125       0.034522284827476324
587.4351196289062       0.21058518054110623
588.4445190429688       0.059389773905961916


