CHARGE: 1
PRECURSORMZ: 319.117614296
COMPOUNDNAME: challenge41
FORMULA: C17H18O6
SMILES: OC1=C(C[C@H](OC(C)=O)C(C)(C)O2)C2=CC(OC(C)=C3)=C1C3=O
INCHIKEY: ZHMBJOBSCRAOAO-AWEZNQCLSA-N
PRECURSORTYPE: [M+H]+
IONMODE: positive
PARENTMASS: 318.110338296
NUM PEAKS: 19
56.39168167114258       0.014597913568017241
64.77196502685547       0.01701949631923173
189.05426025390625      0.15479041501190433
193.05198669433594      0.014922758726938344
205.0491485595703       0.18076226674932572
206.06039428710938      0.018009667668461456
217.0485076904297       0.44710754294420285
218.0151824951172       0.02526920992193994
218.058837890625        0.06851784603400012
229.0549774169922       0.03275469384412936
230.06375122070312      0.06747823976034435
231.06149291992188      0.024087212394983456
231.10650634765625      0.06286945359975316
241.0922088623047       0.05886097644849259
244.07269287109375      0.07424471114117004
259.0957336425781       1.0
260.0985412597656       0.16077371557631212
319.1169128417969       0.7144672911130701
320.1174011230469       0.13384030972118177


