CHARGE: 1
PRECURSORMZ: 291.086314168
COMPOUNDNAME: challenge9
FORMULA: C15H14O6
SMILES: O[C@H]1[C@H](C2=CC=C(O)C(O)=C2)OC3=CC(O)=CC(O)=C3C1
INCHIKEY: PFTAWBLQPZVEMU-HIFRSBDPSA-N
PRECURSORTYPE: [M+H]+
IONMODE: positive
PARENTMASS: 290.079038168
NUM PEAKS: 36
52.35231399536133       0.011302326278532001
62.080074310302734      0.010051909112188914
86.02111053466797       0.013039862271802344
95.05146789550781       0.0186111008557375
105.07564544677734      0.010318044300197154
111.04659271240234      0.011423995673883636
116.17554473876953      0.01228478222680476
119.03575897216797      0.010956789306812468
119.05333709716797      0.03282012311525878
123.0256576538086       0.05164148712110811
123.0480728149414       0.5750577949719661
124.05219268798828      0.05258969051648111
137.06324768066406      0.012046212133314
139.01649475097656      0.07366215470892026
139.04327392578125      1.0
140.0467529296875       0.06424850067399442
143.0516357421875       0.018559355352132906
147.04884338378906      0.1662240713931605
148.05087280273438      0.01735820776881932
151.04415893554688      0.03143100494011994
153.0590057373047       0.011727783555406615
161.0651397705078       0.0611372545518857
163.04254150390625      0.01872701319482059
165.0264434814453       0.014477364447892337
165.0598907470703       0.18405249233521756
166.0634307861328       0.014497326364339187
169.0550994873047       0.019062979543468188
179.07626342773438      0.039572239807886864
189.0572052001953       0.013972057186952639
192.37298583984375      0.012628197201676855
207.0647430419922       0.07635130737508551
213.95603942871094      0.011072748011449399
249.0806427001953       0.014291121745706872
273.0791320800781       0.025871591117932604
291.0857238769531       0.24047142121228787
292.10052490234375      0.03966904799326915


