CHARGE: 1
PRECURSORMZ: 329.1383497399999
COMPOUNDNAME: challenge2
FORMULA: C19H20O5
SMILES: C/C(C)=C\C(O[C@H](C(C)(C)O1)CC2=C1C=C(O3)C(C=CC3=O)=C2)=O
INCHIKEY: CUKSFECWKQBVED-INIZCTEOSA-N
PRECURSORTYPE: [M+H]+
IONMODE: positive
PARENTMASS: 328.1310737399999
NUM PEAKS: 30
51.59303665161133       0.013418230935309602
55.05533218383789       0.02203245099174775
68.75311279296875       0.0155188721843109
83.0494613647461        0.14923937597389508
101.81665802001953      0.01386679737431122
104.6734848022461       0.015418864417542644
155.0880889892578       0.01841723565066004
169.74684143066406      0.015920175999810184
173.09976196289062      0.015670614518235294
175.04122924804688      0.02772560022538596
186.06991577148438      0.023355446417134183
194.61929321289062      0.0191046583941376
205.28729248046875      0.018638952584314063
211.08116149902344      0.04743001648410172
213.05226135253906      0.08057139687184216
214.060791015625        0.09779239914455044
220.60377502441406      0.01795978769133359
228.1278533935547       0.0188595908001549
228.1775665283203       0.018200542723951798
229.03797912597656      0.03982594751800844
229.08534240722656      0.9968353422215862
230.08847045898438      0.13670285479273725
231.09669494628906      0.01782846938932394
247.09596252441406      0.16880984874260402
248.10585021972656      0.034596157247730824
329.01190185546875      0.024961176784211274
329.1372375488281       1.0
330.1397399902344       0.20188434400615043
330.3435974121094       0.02382031835729913
331.1467590332031       0.018011607724355012


