CHARGE: 1
PRECURSORMZ: 277.08592024399996
COMPOUNDNAME: challenge227
FORMULA: C18H12O3
SMILES: O=C(C1=C2C=CC3=C1C=CC=C3C)C(C4=C2OC=C4C)=O
INCHIKEY: AIGAZQPHXLWMOJ-UHFFFAOYSA-N
PRECURSORTYPE: [M+H]+
IONMODE: positive
PARENTMASS: 276.078644244
NUM PEAKS: 29
64.62068939208984       0.009157893709313929
69.26882934570312       0.008580649958799964
169.06915283203125      0.016657803724580922
171.64796447753906      0.009273984097980827
176.72291564941406      0.00889846270975981
178.07736206054688      0.1566156099868294
179.08663940429688      0.031404862580940475
193.064208984375        0.010807784363965015
193.10061645507812      0.14554714990717457
194.11080932617188      0.022615714153287156
202.0838623046875       0.013581602592449803
203.08462524414062      0.04173070334901484
206.07833862304688      0.017404514861619067
207.0834503173828       0.011672457392256173
208.40823364257812      0.008049344886072243
221.0961456298828       0.04647079223103972
222.1031494140625       0.013704305578168315
231.07968139648438      0.038335690014051356
232.09097290039062      0.010120269800718099
234.06710815429688      0.04581644897810045
248.08546447753906      0.014203442880198633
249.03677368164062      0.018451429456809203
249.09043884277344      0.4988482390200313
250.0941619873047       0.10779016637245128
262.0697937011719       0.0253449058677938
276.9874267578125       0.028641208512296307
277.0852966308594       1.0
278.0884704589844       0.18639687219826456
279.0957336425781       0.015406509056290263


