CHARGE: 1
PRECURSORMZ: 283.096484928
COMPOUNDNAME: challenge50
FORMULA: C17H14O4
SMILES: O=C1C=C(C2=CC=C(OC)C(OC)=C2)OC3=CC=CC=C13
INCHIKEY: ZGHORMOOTZTQFL-UHFFFAOYSA-N
PRECURSORTYPE: [M+H]+
IONMODE: positive
PARENTMASS: 282.089208928
NUM PEAKS: 18
134.91168212890625      0.00585223869023378
210.0731964111328       0.008195589522716169
222.07435607910156      0.04909843994640696
223.076416015625        0.01252938533810597
238.06784057617188      0.017812782205353928
239.0706329345703       0.09788555906050923
240.0814666748047       0.018929423217600348
254.0614776611328       0.011867472886990969
267.0646667480469       0.29520704886832944
268.07147216796875      0.1152273786684952
269.0843811035156       0.019837090453897456
282.99810791015625      0.03218319835329023
283.02874755859375      0.042603512868747716
283.0957946777344       1.0
283.18389892578125      0.01510585160718175
284.09906005859375      0.1648608522456662
285.10699462890625      0.007382563654219439
302.51019287109375      0.006496173113658457


