CHARGE: 1
PRECURSORMZ: 801.4994829839998
COMPOUNDNAME: challenge70
FORMULA: C42H72O14
SMILES: C[C@]12[C@]3([C@@]([C@@H](C[C@]1([H])[C@@]4([C@@](C(C)([C@H]([C@@H](C4)O)O[C@H]5[C@@H]([C@H]([C@@H]([C@H](O5)CO)O)O)O[C@@H]6O[C@@H]([C@H]([C@@H]([C@H]6O)O)O)CO)C)([H])CC2)C)O)([H])[C@@](CC3)([H])[C@](C)(O)CC/C=C(C)\C)C
INCHIKEY: LTJZMSTVPKBWKB-XUYZQZLKSA-N
PRECURSORTYPE: [M+H]+
IONMODE: positive
PARENTMASS: 800.4922069839997
NUM PEAKS: 58
61.029788970947266      0.06644219074033955
67.05606079101562       0.17983405417886286
69.03528594970703       0.1705978089046463
69.0714111328125        0.10660019997303812
79.05512237548828       0.05593253346402607
81.03543090820312       0.05794596238892186
81.07231140136719       0.19896583961844339
81.9808120727539        0.056216232104424606
83.08773040771484       0.07108331562260405
85.0306625366211        1.0
86.09760284423828       0.07639166410286584
91.055908203125         0.07721667796246814
93.07186889648438       0.11880884933808705
95.08602905273438       0.3569786361657867
96.3594970703125        0.052188885938814066
97.031005859375         0.2389987414816304
99.08301544189453       0.061193194049441686
105.07223510742188      0.17414920135176784
107.08555603027344      0.2740519528280751
109.03025817871094      0.10854925687927332
109.10148620605469      0.49621447296810417
119.08863067626953      0.17395820989794578
121.10420989990234      0.23897434282457083
122.9839859008789       0.07074089914671179
123.12014770507812      0.23596880179360286
127.0386734008789       0.2688100624173847
127.11382293701172      0.0925112434288968
129.10589599609375      0.05838927176656626
133.1037139892578       0.16823804412689028
135.11929321289062      0.07712452334379209
145.04934692382812      0.38585756516343295
145.103271484375        0.08987921259776682
147.116943359375        0.3773041224752273
149.1359100341797       0.128794402386079
161.1362762451172       0.1662985736312062
163.0637664794922       0.16740836984964738
163.15162658691406      0.10194381736316722
175.04119873046875      0.07725307034139683
175.1511688232422       0.08622473411117988
187.49386596679688      0.0673470014016206
193.0477294921875       0.0643171302491466
203.18577575683594      0.20438475736392248
205.16168212890625      0.11816031452884514
215.1836700439453       0.06206515476321754
217.1554718017578       0.0623969396613672
217.19906616210938      0.12484249673102543
234.99383544921875      0.09244880753962366
277.00518798828125      0.11708822999873826
325.11376953125         0.27599229715206675
405.35845947265625      0.0957921089123154
423.374267578125        0.23601554304111577
424.381591796875        0.08192292018753795
441.3722229003906       0.995455681587108
442.3938903808594       0.24128995357195995
459.3827819824219       0.3829875703234748
460.39898681640625      0.104804302895072
800.2454833984375       0.1583998168181725
803.4619140625          0.11453010619515486


