CHARGE: 1
PRECURSORMZ: 611.3115630640001
COMPOUNDNAME: challenge215
FORMULA: C37H42N2O6
SMILES: OC1=CC=C(C[C@H]2N(C)CCC3=C2C=C(OC)C(OC)=C3)C=C1OC4=CC5=C(C=C4OC)CCN(C)[C@@H]5CC6=CC=C(O)C=C6
INCHIKEY: XCUCMLUTCAKSOZ-FIRIVFDPSA-N
PRECURSORTYPE: [M+H]+
IONMODE: positive
PARENTMASS: 610.304287064
NUM PEAKS: 55
52.900787353515625      0.010876165621663166
58.06633377075195       0.019210154987522973
67.92086791992188       0.0443148249950559
68.03275299072266       0.016347001636516
70.26299285888672       0.010989524024979998
107.04927825927734      0.10114438328265275
120.53929901123047      0.012415072123835755
121.06710815429688      0.016307745496625448
145.06797790527344      0.022046059136213846
145.09170532226562      0.0207931715170462
146.07528686523438      0.01321704229604182
151.0779571533203       0.018203505536527144
152.82040405273438      0.011456279151660774
158.07554626464844      0.027212571741048488
159.08370971679688      0.011752247024388542
162.09413146972656      0.025690484815282473
165.09548950195312      0.01379540544947891
174.09359741210938      0.05730076826609764
175.10263061523438      0.0377404751968198
176.10577392578125      0.07053676071985125
177.08102416992188      0.015139471367340222
182.753173828125        0.012413421282007932
189.09005737304688      0.054457758592885486
190.09283447265625      0.04079601932232077
191.09890747070312      0.0408601161033381
192.10440063476562      0.021473693174598858
195.08334350585938      0.01183608755085131
206.07733154296875      0.03334499629321895
206.1169891357422       0.7206847220591407
207.08404541015625      0.02499236434093846
207.12635803222656      0.08365406831702499
237.0975799560547       0.02276461561558563
239.1096649169922       0.020021868803021346
240.11839294433594      0.019288053918140455
251.1158447265625       0.012455258151274086
252.12168884277344      0.0372543834307174
267.1058654785156       0.024693492923485817
282.12213134765625      0.012717999357468328
283.12115478515625      0.016603917819074422
297.13427734375         0.01698435929503326
298.152099609375        0.02087791413306833
446.20770263671875      0.04674083614742234
458.20489501953125      0.015393666933871692
460.21990966796875      0.015811359507718357
461.237060546875        0.021462077202280747
474.2452087402344       0.025627526855080643
489.2359924316406       0.09751841367446967
490.2541198730469       0.035426961606838794
566.2702026367188       0.013210064104241638
568.28271484375         0.013349752582838437
569.269287109375        0.017857594542429186
580.2874755859375       0.038968547282721165
611.3106079101562       1.0
612.3142700195312       0.37000501353758447
613.3316040039062       0.05260209759961967


