CHARGE: 1
PRECURSORMZ: 286.10738396
COMPOUNDNAME: challenge100
FORMULA: C16H15NO4
SMILES: O=C(C1=CC=CC=C1)N[C@](C2=CC=CC=C2)([H])[C@@H](O)C(O)=O
INCHIKEY: HYJVYOWKYPNSTK-UONOGXRCSA-N
PRECURSORTYPE: [M+H]+
IONMODE: positive
PARENTMASS: 285.10010796
NUM PEAKS: 29
53.039852142333984      0.01262672706444508
59.94286346435547       0.007634594128264602
67.21723937988281       0.008537402634648644
77.03250122070312       0.009934669772102642
77.04137420654297       0.036851617325477606
79.0470962524414        0.012752640826369682
79.05673217773438       0.030899821473933733
91.0435562133789        0.01479627370864427
91.05711364746094       0.14714124747917307
92.06072998046875       0.008481360230711674
95.05194091796875       0.022490686442724023
105.01115417480469      0.03569226225928235
105.01924896240234      0.07922302652024471
105.03681945800781      1.0
105.0553970336914       0.020178050670291024
106.0401382446289       0.07355504535256839
106.06751251220703      0.011980167779141687
118.0684585571289       0.029564229957821236
119.04979705810547      0.04108957003375035
122.04186248779297      0.03504141048394134
122.06379699707031      0.5290583886595294
123.04883575439453      0.015048781327262659
123.06741333007812      0.037257948541119086
136.0791015625          0.020848980919183305
196.4775848388672       0.008320706492739555
240.1095428466797       0.028598571071802022
269.08807373046875      0.010905547763767091
286.1056213378906       0.08295177097456383
287.1186218261719       0.019463298098672137


