CHARGE: 1
PRECURSORMZ: 161.0209143
COMPOUNDNAME: challenge76
FORMULA: C7H5NaO3
SMILES: O=C(O[Na])C1=CC=CC=C1O
INCHIKEY: ABBQHOQBGMUPJH-UHFFFAOYSA-M
PRECURSORTYPE: [M+H]+
IONMODE: positive
PARENTMASS: 160.0136383
NUM PEAKS: 32
61.011409759521484      0.01881770430250884
62.019264221191406      0.026548991657073983
63.007450103759766      0.007730482036478217
63.99851989746094       0.02813289059299051
65.99445343017578       0.020473656766690728
75.2423324584961        0.007645909241549224
79.02151489257812       1.0
80.02516174316406       0.05614147597818287
81.0172119140625        0.9769309478439764
81.02590942382812       0.045056722168748876
82.02064514160156       0.04606688065941308
83.09049987792969       0.007469089842539059
84.9599609375           0.04063484334115923
99.4880599975586        0.007352279766588842
105.98030853271484      0.025914284144538457
107.99781799316406      0.0076763216429938715
108.99584197998047      0.017703953622349545
110.80184936523438      0.006847436358362111
113.98741912841797      0.006535150771127211
114.96989440917969      0.006731382908816382
114.98624420166016      0.11889786012673183
115.48709869384766      0.007817494496400304
115.98323059082031      0.01513719741040866
118.00130462646484      0.017941821382582285
123.98934173583984      0.01935709297750434
134.917236328125        0.01041994975628077
137.47525024414062      0.04144284074083709
144.987548828125        0.09499814649818226
145.4885711669922       0.012297333362328172
145.98324584960938      0.008757446355484306
150.95059204101562      0.034801095408735085
168.9606475830078       0.030099470586768814


