CHARGE: 1
PRECURSORMZ: 461.2169939839998
COMPOUNDNAME: challenge28
FORMULA: C25H32O8
SMILES: CCCC(C1=C(C(C)(C)C(O)=C(CC2=C(O)C(C(CCC)=O)=C(OC)C(C)=C2O)C1=O)O)=O
INCHIKEY: DCEHSZHMKGBNHS-UHFFFAOYSA-N
PRECURSORTYPE: [M+H]+
IONMODE: positive
PARENTMASS: 460.20971798399984
NUM PEAKS: 37
51.24495315551758       0.025696984649630168
57.07128143310547       0.020998619439043676
71.0508804321289        0.027886863455894497
90.97805786132812       0.04372998375184245
110.06886291503906      0.02666364829071081
125.9636001586914       0.022005512862818367
128.22520446777344      0.019682745041725833
137.0592803955078       0.1938375753443812
149.06153869628906      0.0485271248646251
151.07626342773438      0.02900351426464505
153.0587921142578       0.0637072104067313
165.05862426757812      0.14844012553308522
165.09507751464844      0.038400965692263166
177.05921936035156      0.03585963982130957
177.09486389160156      0.02240529112877473
189.0936737060547       0.046395302923489395
191.11001586914062      0.04494383771796104
192.077392578125        0.22511044551035783
204.08468627929688      0.07934264717310328
207.10122680664062      0.3449976224218236
208.10777282714844      0.0432281355350134
219.10104370117188      0.4966010330009879
220.1100616455078       0.05822705830384549
225.1114959716797       1.0
226.11366271972656      0.10575171878428742
235.05711364746094      0.06736641319354957
237.03271484375         0.026354530642868995
237.11190795898438      0.7445624704704283
238.1167755126953       0.113124920847754
291.1181335449219       0.04289720149984553
347.185791015625        0.052592377088842825
348.18902587890625      0.0290376273772771
403.24713134765625      0.04014278257019053
443.216796875           0.04213193238981532
461.2159423828125       0.7350773216819537
462.2209777832031       0.18375535398785972
463.2389831542969       0.04284774521159812


