CHARGE: 1
PRECURSORMZ: 279.170318564
COMPOUNDNAME: challenge21
FORMULA: C15H22N2O3
SMILES: O=C(OCC)NCCCC(NCCC1=CC=CC=C1)=O
INCHIKEY: HTOYBIILVCHURC-UHFFFAOYSA-N
PRECURSORTYPE: [M+H]+
IONMODE: positive
PARENTMASS: 278.163042564
NUM PEAKS: 24
60.46539306640625       0.01690614756415291
69.03568267822266       0.05130387886131526
79.12155151367188       0.018125651424638758
86.04971313476562       0.040341888507509124
86.06266784667969       0.6211405426346782
87.0655288696289        0.021393482400553263
105.05604553222656      0.060207456380814095
105.07298278808594      0.8094542290171264
106.0765151977539       0.05664104886698892
112.04285430908203      0.0994075104632698
122.09999084472656      0.34812948842137353
123.10249328613281      0.027703689276341707
130.05368041992188      0.10252072416169318
158.08621215820312      0.07670934024269956
182.67236328125         0.019428850439936404
189.14266967773438      0.050170457496170745
190.08717346191406      0.040945123979584025
190.12210083007812      0.7028512327269899
191.12725830078125      0.10373256973235068
233.0804443359375       0.05447119270968851
233.1280517578125       1.0
234.13063049316406      0.14270019333615322
279.16900634765625      0.3316021801431482
280.1798400878906       0.044712745455653756


