CHARGE: 1
PRECURSORMZ: 623.3115630640001
COMPOUNDNAME: challenge230
FORMULA: C38H42N2O6
SMILES: COC1=C(OC2=CC=C(C[C@](N(CC3)C)([H])C4=C3C=C5OC)C=C2)C([C@@](N6C)([H])CC7=CC=C(OC4=C5OC)C=C7)=C(CC6)C=C1OC
INCHIKEY: ANOXEUSGZWSCQL-LOYHVIPDSA-N
PRECURSORTYPE: [M+H]+
IONMODE: positive
PARENTMASS: 622.304287064
NUM PEAKS: 42
58.066650390625         0.013810541088414159
69.25424194335938       0.0429641808306045
69.3662338256836        0.01818724173553719
70.44176483154297       0.010403564212017257
70.85259246826172       0.009705821345963928
159.103271484375        0.05448604397317948
164.0721893310547       0.013739963420655959
190.08676147460938      0.08573884427465045
191.09490966796875      0.01606225635428037
204.10061645507812      0.06521266697853319
205.1129150390625       0.012535752572898799
220.09957885742188      0.013724855761733977
253.0922393798828       0.01972794518945891
255.10409545898438      0.018052500779666303
258.04998779296875      0.011017810502105098
266.1060791015625       0.014727894836010188
267.1056213378906       0.013236803335672332
268.11578369140625      0.020015184001247466
269.1249084472656       0.02132006113883258
280.1178894042969       0.015028248284734133
281.12408447265625      0.037575468449503616
296.1390686035156       0.017081213615572535
298.1496276855469       0.028242547689588855
311.1511535644531       0.06592871900826447
312.1553039550781       0.07718190264566765
313.1798095703125       0.012839173521232912
324.161376953125        0.015640538099693332
357.1573181152344       0.02419821229013982
400.18994140625         0.05939234107801861
401.2003479003906       0.012991328648838297
549.2430419921875       0.028318022636311658
550.2568359375          0.013752507926607411
563.2451782226562       0.012073745062113415
565.25927734375         0.011969476876396903
580.275390625           0.026504258927179166
581.2608032226562       0.013069603897032071
592.2618408203125       0.08736851577524819
593.285400390625        0.037119402645667654
623.0944213867188       0.020704347289360155
623.3095703125          1.0
624.31396484375         0.3715695982119653
625.3274536132812       0.04093085334476844


