CHARGE: 1
PRECURSORMZ: 237.075749484
COMPOUNDNAME: challenge167
FORMULA: C12H12O5
SMILES: O=C1C=CC2=CC(OC)=C(OC)C(OC)=C2O1
INCHIKEY: RAYQKHLZHPFYEJ-UHFFFAOYSA-N
PRECURSORTYPE: [M+H]+
IONMODE: positive
PARENTMASS: 236.068473484
NUM PEAKS: 42
59.2657356262207        0.010276599019137798
59.271854400634766      0.006924000184470247
76.5914077758789        0.005801499833360409
101.95834350585938      0.004627008191425523
119.05149841308594      0.006994112086147165
133.03060913085938      0.006367209048815934
135.04579162597656      0.005232842574786395
147.04788208007812      0.018557317470212897
148.0514373779297       0.043524909977198774
151.04315185546875      0.012258387727841668
161.0258026123047       0.011201186652190815
163.0433349609375       0.02025515504085862
164.04905700683594      0.0069205908969436495
165.05679321289062      0.010154453520101754
166.06654357910156      0.017210728694897218
175.04396057128906      0.018123076325335073
176.04612731933594      0.12478411697967173
177.05264282226562      0.024065882734157242
178.06198120117188      0.038194806744302666
179.03909301757812      0.014912859271214848
181.09188842773438      0.015800659481132302
183.91632080078125      0.006005606503170555
191.0342559814453       0.035489604507237704
192.04258728027344      0.011864160997178354
193.0498046875          0.08670593043226354
194.06076049804688      0.02051784903729865
203.03724670410156      0.009323359199892224
204.04180908203125      0.04417890157873952
207.028076171875        0.11199555202171026
208.03814697265625      0.014339196427352843
209.08433532714844      0.012084844261324338
213.92669677734375      0.008045287060358753
221.0438690185547       0.027327277624199328
222.05160522460938      0.1133082625500304
223.06138610839844      0.011205255646484565
236.02638244628906      0.0056535380617372165
236.069091796875        0.026968281573799765
236.9984893798828       0.023448067002763532
237.02371215820312      0.03383833439216614
237.07516479492188      1.0
238.07919311523438      0.13467759972069707
239.08407592773438      0.011492131782638576


