CHARGE: 1
PRECURSORMZ: 839.29682
COMPOUNDNAME: challenge170
FORMULA: C39H50O20
SMILES: O[C@H]1[C@H](O)[C@@H](O)[C@H](OC2=CC(O)=C(C(C(O[C@H]3[C@H](O)[C@H](O[C@@]4([H])[C@H](O)[C@@H](O)[C@H](O)[C@@H](CO)O4)[C@@H](O)[C@H](C)O3)=C(C5=CC=C(OC)C=C5)O6)=O)C6=C2C/C=C(C)/C)O[C@@H]1CO
INCHIKEY: NLVBYGTTYRFJKH-YFNAFYFCSA-N
PRECURSORTYPE: [M+H]+
IONMODE: positive
PARENTMASS: 838.289544
NUM PEAKS: 36
59.01902389526367       0.046147047340640415
61.03007507324219       0.03701363913877048
69.0359115600586        0.06646262133517064
71.05149841308594       0.08085989038611749
73.03031158447266       0.036547163233792035
81.03467559814453       0.03298234762538646
81.80403900146484       0.017481935748229538
85.03112030029297       0.4829582614944183
86.03288269042969       0.01893375688764526
91.04088592529297       0.027689205942373486
97.03121948242188       0.11375495516884991
99.04634857177734       0.02508820068366683
109.03099822998047      0.025472617231429913
127.04316711425781      0.08582959438377669
129.05751037597656      0.030117484395849967
129.2037353515625       0.015988853071413702
133.05258178710938      0.026779306759480113
144.47268676757812      0.019032675310618294
145.05389404296875      0.1520846567939807
146.0563201904297       0.01638468000331233
163.06423950195312      0.056511513798487054
179.0590362548828       0.02292201327711925
273.1061096191406       0.01572722307702607
312.95184326171875      0.022281455392244527
313.0697326660156       0.8646541621968555
314.07379150390625      0.1720716842145929
320.04132080078125      0.01979339601345297
369.1319885253906       1.0
370.1354064941406       0.17912674751172342
371.14300537109375      0.019570346522612747
531.1845703125          0.8484258802766904
532.1890258789062       0.21984466932011199
533.2078857421875       0.022782498245122094
610.1007690429688       0.017590568255092344
677.2440185546875       0.11769400685850034
678.2564086914062       0.024676174284299347


