CHARGE: 1
PRECURSORMZ: 609.295913
COMPOUNDNAME: challenge105
FORMULA: C37H40N2O6
SMILES: COC1=C(OC2=CC([C@]3([H])CC(C=C4)=CC=C4O5)=C(CCN3C)C=C2OC)C([C@@]6([H])CC7=CC=C(O)C5=C7)=C(CCN6C)C=C1OC
INCHIKEY: DFOCUWZXJBAUSQ-URLMMPGGSA-N
PRECURSORTYPE: [M+H]+
IONMODE: positive
PARENTMASS: 608.288637
NUM PEAKS: 33
58.06685256958008       0.027998923839358217
67.69725799560547       0.04198297940700772
67.80912017822266       0.01529057418705581
119.05152893066406      0.013529772169889669
146.10049438476562      0.018904786732439584
152.31695556640625      0.01544585343777893
162.09402465820312      0.019997071367662256
174.09127807617188      0.11600236272456999
175.10194396972656      0.026490939682154196
176.0784149169922       0.015341539834852556
176.1114959716797       0.04646072101478454
179.8028564453125       0.012227051479230002
190.0903778076172       0.024108946931813605
192.1057891845703       0.023880854931521672
199.07850646972656      0.028283463743523793
206.08255004882812      0.016757079326076126
213.09677124023438      0.018858507053674492
222.1179962158203       0.027312088578472823
225.09970092773438      0.012293462801873403
315.45050048828125      0.011757844253174768
381.177978515625        0.07949960771557713
382.1943054199219       0.03853921488902367
535.2244873046875       0.016333081051246753
563.2434692382812       0.013380429026090218
566.2754516601562       0.03594399744013704
567.2737426757812       0.015372812943561376
578.2594604492188       0.06149593118947432
579.2745361328125       0.02475372480141453
607.3018188476562       0.04328290653920621
608.3013916015625       0.05173933077598703
609.2947387695312       1.0
610.2980346679688       0.38260498038682744
611.302734375           0.0665536253644963


