CHARGE: 1
PRECURSORMZ: 273.112134992
COMPOUNDNAME: challenge0
FORMULA: C16H16O4
SMILES: COC1=CC(/C=C/C2=CC=C(O)C(O)=C2)=CC(OC)=C1
INCHIKEY: UQRBFXIUUDJHSN-ONEGZZNKSA-N
PRECURSORTYPE: [M+H]+
IONMODE: positive
PARENTMASS: 272.104858992
NUM PEAKS: 44
57.06512451171875       0.0056496647737717
57.071983337402344      0.05267849460446866
58.061058044433594      0.005021223970619006
58.06718063354492       0.014049851358892666
68.57190704345703       0.004286581484152445
70.06743621826172       0.051424951136378634
70.2705078125           0.004716149074713919
71.08782958984375       0.02515714724877523
71.79259490966797       0.00459523036499463
85.10321044921875       0.01007111620833698
86.06281280517578       0.02412631756391748
88.07860565185547       0.07790223847451637
100.0787124633789       0.03714468994333384
102.09427642822266      0.020014668940409847
106.08946990966797      0.0520516197471607
107.05162811279297      0.008717759925010596
118.08890533447266      0.007034247354025126
131.0518798828125       0.0053881546822361305
135.04696655273438      0.008483625240407062
137.06121826171875      0.008883495240930165
149.0629425048828       0.01003398037553612
150.0681610107422       0.005546849925769584
164.08609008789062      0.00855110509332976
212.23672485351562      0.0898040609115962
213.243408203125        0.005543477890555755
225.09869384765625      0.013207012517850255
226.10012817382812      0.005975668917829673
230.2504119873047       0.0055723199394496865
241.0901641845703       0.006425914154879347
242.0966796875          0.005626505962480121
254.2470703125          0.16456132250038988
255.25257873535156      0.027025190782619706
256.261962890625        0.044355572646687415
271.1022033691406       0.006665824697052881
272.0536193847656       0.0052954635786357195
272.10491943359375      0.02251322720080626
272.2574157714844       0.1333024768160572
273.11102294921875      0.09762258407402827
273.26953125            0.02089973580278359
274.1342468261719       0.02866620272401856
274.1791076660156       0.02722732765551416
274.2096252441406       0.045953788433963715
274.27294921875         1.0
275.2763977050781       0.06759690928428361


