CHARGE: 1
PRECURSORMZ: 247.12297444799998
COMPOUNDNAME: challenge152
FORMULA: C17H14N2
SMILES: CC1=C(C=NC=C2)C2=C(C)C(N3)=C1C4=C3C=CC=C4
INCHIKEY: CTSPAMFJBXKSOY-UHFFFAOYSA-N
PRECURSORTYPE: [M+H]+
IONMODE: positive
PARENTMASS: 246.115698448
NUM PEAKS: 14
61.65495681762695       0.004104725078878438
61.77915573120117       0.006301042627842601
61.90610885620117       0.0038105357129568996
62.030128479003906      0.0036862526416835337
149.8063201904297       0.0025826667888290272
231.0991668701172       0.007952575269377307
232.0989532470703       0.053443356351946664
233.111328125           0.009216657116918681
247.0082244873047       0.012024736017680676
247.0409698486328       0.030053598270627455
247.06834411621094      0.04595483093225384
247.12240600585938      1.0
248.125732421875        0.17837577390165496
249.13987731933594      0.005586986266966305


