CHARGE: 1
PRECURSORMZ: 767.49400368
COMPOUNDNAME: challenge118
FORMULA: C42H70O12
SMILES: C[C@]12[C@@](C[C@@H](O)[C@@]3([H])[C@]2(CC[C@@H]3C(CC/C=C(C)/C)=C)C)([H])[C@@]4([C@@](C(C)([C@@H](O[C@@]5([H])[C@@H]([C@H]([C@H](O)[C@@H](CO)O5)O)O[C@]6([H])O[C@@H]([C@@H](O)[C@H](O)[C@H]6O)CO)CC4)C)([H])CC1)C
INCHIKEY: KWDWBAISZWOAHD-MHOSXIPRSA-N
PRECURSORTYPE: [M+H]+
IONMODE: positive
PARENTMASS: 766.48672768
NUM PEAKS: 56
55.0558967590332        0.2213169199410977
57.07168960571289       0.12846596076340763
67.05564880371094       0.2099075746145114
69.03504943847656       0.1986803701412166
69.07188415527344       0.30439699998160974
81.0723876953125        0.5459213378397165
81.95484161376953       0.12477592623556147
83.08710479736328       0.1299979960983104
85.03113555908203       1.0
93.07205963134766       0.3220566654639029
95.08834075927734       0.7765406526758535
97.03069305419922       0.21100482352665137
105.07247924804688      0.27941514889081154
107.08889770507812      0.5369057883658569
109.10150146484375      0.7775588799373294
119.08951568603516      0.4784568237749548
121.10433959960938      0.3791489449253268
123.12078857421875      0.35543970175967793
127.04043579101562      0.21870235316822564
131.08750915527344      0.14560570570843526
133.10464477539062      0.3981943253365396
135.12094116210938      0.4997501112045655
145.05445861816406      0.3409035229141296
145.1038360595703       0.16453713358773867
147.12142944335938      0.557985544710013
149.1355743408203       0.29416987914514003
159.11932373046875      0.2199565180108415
161.1370849609375       0.3309913260791247
163.1505889892578       0.17423602833449348
171.48666381835938      0.12333951484863673
175.15390014648438      0.14190451197067033
189.17002868652344      0.6253977064908306
191.18536376953125      0.2207192548529616
203.18382263183594      0.32066270663562735
207.13461303710938      0.16979198528104616
207.17892456054688      0.3180031683348585
215.1840057373047       0.15199618976836263
217.20228576660156      0.3052805064262605
220.477783203125        0.1514672414566956
325.1252746582031       0.22139220717581412
325.31683349609375      0.1297562543187992
331.2700500488281       0.16665690786272822
376.26934814453125      0.2315106424160741
407.3628234863281       0.7029999972520335
408.3838806152344       0.1985461953946478
425.3796081542969       0.6087253712625983
426.3939208984375       0.20649155285681764
443.4062805175781       0.35543681287186946
551.4241333007812       0.20629493233414456
569.4326782226562       0.21110378554926176
587.4446411132812       0.2089516522077832
588.4512939453125       0.1632060609148065
605.4398803710938       0.7663231497219657
606.4562377929688       0.312790733969861
767.507080078125        0.27114655306714275
768.4911499023438       0.13415332652260417


