CHARGE: 1
PRECURSORMZ: 285.075749484
COMPOUNDNAME: challenge4
FORMULA: C16H12O5
SMILES: O=C1C(C2=CC=C(OC)C(O)=C2)=COC3=CC(O)=CC=C13
INCHIKEY: ZZAJQOPSWWVMBI-UHFFFAOYSA-N
PRECURSORTYPE: [M+H]+
IONMODE: positive
PARENTMASS: 284.06847348400004
NUM PEAKS: 29
62.97829818725586       0.005984395739738616
71.26561737060547       0.0061645590265233035
134.04039001464844      0.02898840145457973
137.02749633789062      0.0734296115361053
138.0301971435547       0.0077123589697774145
141.07373046875         0.007457015971316819
169.0695343017578       0.006840056608441589
183.0487518310547       0.008308771878583435
186.07632446289062      0.007189032163530262
197.06640625            0.01912493643086034
213.05343627929688      0.038590785076420414
214.0615997314453       0.04689317733777352
225.0540313720703       0.07111478672185483
226.06484985351562      0.012252292661519611
229.09146118164062      0.008860469788214134
242.06163024902344      0.009470645170316205
253.0492401123047       0.07021368066791285
254.06166076660156      0.015192745803945902
269.0426025390625       0.028636957379714424
270.0513000488281       0.20397776896372977
271.05804443359375      0.0321008545263191
284.07733154296875      0.005899577572022117
284.92657470703125      0.00905459128724808
284.97589111328125      0.030745199670913118
285.0089416503906       0.0460425486168926
285.074951171875        1.0
286.0121765136719       0.008828265514797129
286.0778503417969       0.17339711518826284
287.09130859375         0.018777624350073043


