CHARGE: 1
PRECURSORMZ: 869.4893122240001
COMPOUNDNAME: challenge121
FORMULA: C45H72O16
SMILES: O[C@@H]1[C@@H](O)[C@H](C)O[C@@]([H])(O[C@H]2[C@H](O)[C@@H](O[C@]3([H])O[C@@H](C)[C@H](O)[C@@H](O)[C@H]3O)[C@@](O[C@@H]4CC5=CC[C@]([C@]([H])(C[C@@]6([H])[C@]7([H])[C@H](C)[C@]8(OC[C@H](C)CC8)O6)[C@]7(C)CC9)([H])[C@@]9([H])[C@@]5(C)CC4)([H])O[C@@H]2CO)[C@@H]1O
INCHIKEY: VNONINPVFQTJOC-ZGXDEBHDSA-N
PRECURSORTYPE: [M+H]+
IONMODE: positive
PARENTMASS: 868.482036224
NUM PEAKS: 103
67.05663299560547       0.04368911824773225
69.03582763671875       0.051056279599842526
69.07230377197266       0.14987687020282683
71.01502227783203       0.02250465596206518
71.04169464111328       0.07002969651495156
71.05158996582031       0.665690861290405
72.05428314208984       0.019912375731763222
73.03096771240234       0.0579322773236898
73.06685638427734       0.02369543572071136
75.0462417602539        0.04656485053930831
79.05656433105469       0.03248086455563805
81.03589630126953       0.02046934637022525
81.07251739501953       0.06648072868588438
83.05186462402344       0.15647785509590664
85.01217651367188       0.03084325550732336
85.0183334350586        0.09139535974988738
85.03126525878906       1.0
86.03409576416016       0.034802387688433634
87.04641723632812       0.03171802540052766
91.05692291259766       0.027321153284395785
93.07295989990234       0.04631352286610847
95.0511703491211        0.031379265317948435
95.08847045898438       0.04869632484286892
97.03058624267578       0.024949733639805568
97.06705474853516       0.03147359936264554
99.04637145996094       0.03900952468602678
103.0425033569336       0.019487846732049258
105.07361602783203      0.0530643335110587
107.08855438232422      0.041348733259324026
109.06693267822266      0.02399572290138937
109.10458374023438      0.04904244680737945
111.0475845336914       0.14002377861033294
113.06184387207031      0.022454726428091994
115.07795715332031      0.029568357940470125
117.0582504272461       0.047037274081242086
119.08859252929688      0.03362636677971479
121.10484313964844      0.05019548634371108
123.12091827392578      0.017425655022980463
124.72919464111328      0.015315003266884125
127.04329681396484      0.04675465789386262
129.0587158203125       0.3645668986078444
131.08969116210938      0.05027252708627685
133.1057586669922       0.05092504120672551
135.11990356445312      0.021542284420816415
142.08151245117188      0.029523761488333362
143.08946228027344      0.052245899454467004
145.05198669433594      0.023727964630472907
145.10562133789062      0.06029277281883722
147.07003784179688      0.1477422670478483
147.11680603027344      0.10388129312737797
149.1374053955078       0.022400010742114684
153.05902099609375      0.04347183644062127
157.10638427734375      0.1281469145496313
158.1081085205078       0.01941825042686119
159.1216278076172       0.09783016052939572
161.13587951660156      0.02597761705553254
163.06515502929688      0.056517169650583746
167.11143493652344      0.028057017447400127
171.06817626953125      0.036502212585029635
171.12188720703125      0.0385641091583776
173.1365509033203       0.025383077497307206
183.12161254882812      0.022788943897233925
185.1356201171875       0.02665793378643725
197.13787841796875      0.028967251096484927
201.07762145996094      0.021530831916516762
211.15208435058594      0.02940015741012073
213.0806884765625       0.017756248308026128
213.1699676513672       0.01964305097125162
229.20147705078125      0.01803734960296444
239.09024047851562      0.08263846414111724
251.1835174560547       0.02769991560852049
253.13885498046875      0.02947707844728924
253.1941680908203       0.44506763899810975
254.1986846923828       0.08936354638120182
255.2117462158203       0.02209602714132482
257.1085205078125       0.03527913300798562
269.1964416503906       0.017082614440506218
271.2042236328125       0.15714046161967576
272.21710205078125      0.03605769278397373
273.1044616699219       0.03043898148637977
275.12396240234375      0.054327568057224
283.2469482421875       0.03773398937835022
293.12274169921875      0.15211045733802012
294.1331787109375       0.02329623679583424
309.1294860839844       0.06978786684585822
321.6320495605469       0.01814987267638615
379.31231689453125      0.04761208288778159
397.30865478515625      0.3207599076937647
398.310791015625        0.10419025688547096
415.3200378417969       0.3315228923941271
416.3197021484375       0.07134979112481399
433.2716064453125       0.042262997678078534
543.375732421875        0.036809252801221874
561.3875122070312       0.0198249350668392
577.3677368164062       0.12590108444173928
578.3943481445312       0.04335169762727061
579.3181762695312       0.03602064189963648
580.3417358398438       0.019360092178769658
723.4411010742188       0.07980893400511012
724.4457397460938       0.031121966822088853
725.407958984375        0.04711811237434153
869.4860229492188       0.19755158378000784
870.4918823242188       0.10005286685675553


